*SPEF "ieee 1481-1999"
*DESIGN "sar_controller"
*DATE "04:38:04 Tuesday September 08, 2026"
*VENDOR "The OpenROAD Project"
*PROGRAM "OpenROAD"
*VERSION "26Q1-1024-gdcf36133a"
*DESIGN_FLOW "NAME_SCOPE LOCAL" "PIN_CAP NONE"
*DIVIDER /
*DELIMITER :
*BUS_DELIMITER []
*T_UNIT 1 NS
*C_UNIT 1 PF
*R_UNIT 1 OHM
*L_UNIT 1 HENRY

*NAME_MAP
*3 busy
*4 clk
*5 comparator_bit
*6 comparator_evaluate
*7 data[0]
*8 data[10]
*9 data[11]
*10 data[1]
*11 data[2]
*12 data[3]
*13 data[4]
*14 data[5]
*15 data[6]
*16 data[7]
*17 data[8]
*18 data[9]
*19 data_gain[0]
*20 data_gain[1]
*21 data_valid
*22 gain_latched[0]
*23 gain_latched[1]
*24 gain_sel[0]
*25 gain_sel[1]
*26 ready
*27 rst_n
*28 sample_en
*29 start
*30 trial_code[0]
*31 trial_code[10]
*32 trial_code[11]
*33 trial_code[1]
*34 trial_code[2]
*35 trial_code[3]
*36 trial_code[4]
*37 trial_code[5]
*38 trial_code[6]
*39 trial_code[7]
*40 trial_code[8]
*41 trial_code[9]
*42 _000_
*43 _001_
*44 _002_
*45 _003_
*46 _004_
*47 _005_
*48 _006_
*49 _007_
*50 _008_
*51 _009_
*52 _010_
*53 _011_
*54 _012_
*55 _013_
*56 _014_
*57 _015_
*58 _016_
*59 _017_
*60 _018_
*61 _019_
*62 _020_
*63 _021_
*64 _022_
*65 _023_
*66 _024_
*67 _025_
*68 _026_
*69 _027_
*70 _028_
*71 _029_
*72 _030_
*73 _031_
*74 _032_
*75 _033_
*76 _034_
*77 _035_
*78 _036_
*79 _037_
*80 _038_
*81 _039_
*82 _040_
*83 _041_
*84 _042_
*85 _043_
*86 _044_
*87 _045_
*88 _046_
*89 _047_
*90 _048_
*91 _049_
*92 _050_
*93 _051_
*94 _052_
*95 _053_
*96 _054_
*97 _055_
*98 _056_
*99 _057_
*100 _058_
*101 _059_
*102 _060_
*103 _061_
*104 _062_
*105 _063_
*106 _064_
*107 _065_
*108 _066_
*109 _067_
*110 _068_
*111 _069_
*112 _070_
*113 _071_
*114 _072_
*115 _073_
*116 _074_
*117 _075_
*118 _076_
*119 _077_
*120 _078_
*121 _079_
*122 _080_
*123 _081_
*124 _082_
*125 _083_
*126 _084_
*127 _085_
*128 _086_
*129 _087_
*130 _088_
*131 _089_
*132 _090_
*133 _091_
*134 _092_
*135 _093_
*136 _094_
*137 _095_
*138 _096_
*139 _097_
*140 _098_
*141 _099_
*142 _100_
*143 _101_
*144 _102_
*145 _103_
*146 _104_
*147 _105_
*148 _106_
*149 _107_
*150 _108_
*151 _109_
*152 _110_
*153 _111_
*154 _112_
*155 _113_
*156 _114_
*157 _115_
*158 _116_
*159 _117_
*160 _118_
*161 _119_
*162 _120_
*163 _121_
*164 _122_
*165 _123_
*166 acquisition_left\[0\]
*167 acquisition_left\[1\]
*168 acquisition_left\[2\]
*169 bit_index\[0\]
*170 bit_index\[1\]
*171 bit_index\[2\]
*172 bit_index\[3\]
*173 clk_regs
*174 clknet_0_clk
*175 clknet_0_clk_regs
*176 clknet_1_0__leaf_clk
*177 clknet_2_0__leaf_clk_regs
*178 clknet_2_1__leaf_clk_regs
*179 clknet_2_2__leaf_clk_regs
*180 clknet_2_3__leaf_clk_regs
*181 net1
*182 net10
*183 net100
*184 net101
*185 net102
*186 net103
*187 net104
*188 net105
*189 net106
*190 net107
*191 net108
*192 net109
*193 net11
*194 net110
*195 net111
*196 net112
*197 net113
*198 net114
*199 net115
*200 net116
*201 net117
*202 net118
*203 net119
*204 net12
*205 net120
*206 net121
*207 net122
*208 net123
*209 net124
*210 net125
*211 net126
*212 net127
*213 net128
*214 net129
*215 net13
*216 net130
*217 net131
*218 net132
*219 net133
*220 net134
*221 net135
*222 net136
*223 net137
*224 net138
*225 net139
*226 net14
*227 net140
*228 net141
*229 net142
*230 net143
*231 net144
*232 net145
*233 net146
*234 net147
*235 net148
*236 net149
*237 net15
*238 net150
*239 net151
*240 net152
*241 net153
*242 net154
*243 net155
*244 net156
*245 net157
*246 net158
*247 net159
*248 net16
*249 net160
*250 net161
*251 net162
*252 net17
*253 net18
*254 net19
*255 net2
*256 net20
*257 net21
*258 net22
*259 net23
*260 net24
*261 net25
*262 net26
*263 net27
*264 net28
*265 net29
*266 net3
*267 net30
*268 net31
*269 net32
*270 net33
*271 net34
*272 net35
*273 net36
*274 net37
*275 net38
*276 net39
*277 net4
*278 net40
*279 net41
*280 net42
*281 net43
*282 net44
*283 net45
*284 net46
*285 net47
*286 net48
*287 net49
*288 net5
*289 net50
*290 net51
*291 net52
*292 net53
*293 net54
*294 net55
*295 net56
*296 net57
*297 net58
*298 net59
*299 net6
*300 net60
*301 net61
*302 net62
*303 net63
*304 net64
*305 net65
*306 net66
*307 net67
*308 net68
*309 net69
*310 net7
*311 net70
*312 net71
*313 net72
*314 net73
*315 net74
*316 net75
*317 net76
*318 net77
*319 net78
*320 net79
*321 net8
*322 net80
*323 net81
*324 net82
*325 net83
*326 net84
*327 net85
*328 net86
*329 net87
*330 net88
*331 net89
*332 net9
*333 net90
*334 net91
*335 net92
*336 net93
*337 net94
*338 net95
*339 net96
*340 net97
*341 net98
*342 net99
*343 state\[0\]
*344 state\[1\]
*345 state\[2\]
*346 FILLER_0_109
*347 FILLER_0_113
*348 FILLER_0_125
*349 FILLER_0_137
*350 FILLER_0_141
*351 FILLER_0_15
*352 FILLER_0_153
*353 FILLER_0_161
*354 FILLER_0_167
*355 FILLER_0_169
*356 FILLER_0_191
*357 FILLER_0_195
*358 FILLER_0_197
*359 FILLER_0_209
*360 FILLER_0_221
*361 FILLER_0_225
*362 FILLER_0_237
*363 FILLER_0_249
*364 FILLER_0_253
*365 FILLER_0_265
*366 FILLER_0_27
*367 FILLER_0_277
*368 FILLER_0_281
*369 FILLER_0_29
*370 FILLER_0_293
*371 FILLER_0_3
*372 FILLER_0_41
*373 FILLER_0_53
*374 FILLER_0_57
*375 FILLER_0_69
*376 FILLER_0_81
*377 FILLER_0_85
*378 FILLER_0_97
*379 FILLER_10_109
*380 FILLER_10_121
*381 FILLER_10_131
*382 FILLER_10_141
*383 FILLER_10_15
*384 FILLER_10_153
*385 FILLER_10_161
*386 FILLER_10_190
*387 FILLER_10_197
*388 FILLER_10_209
*389 FILLER_10_221
*390 FILLER_10_233
*391 FILLER_10_245
*392 FILLER_10_251
*393 FILLER_10_253
*394 FILLER_10_265
*395 FILLER_10_27
*396 FILLER_10_277
*397 FILLER_10_289
*398 FILLER_10_29
*399 FILLER_10_297
*400 FILLER_10_3
*401 FILLER_10_41
*402 FILLER_10_53
*403 FILLER_10_65
*404 FILLER_10_77
*405 FILLER_10_83
*406 FILLER_10_85
*407 FILLER_10_97
*408 FILLER_11_105
*409 FILLER_11_111
*410 FILLER_11_113
*411 FILLER_11_119
*412 FILLER_11_15
*413 FILLER_11_151
*414 FILLER_11_163
*415 FILLER_11_167
*416 FILLER_11_189
*417 FILLER_11_206
*418 FILLER_11_218
*419 FILLER_11_225
*420 FILLER_11_237
*421 FILLER_11_249
*422 FILLER_11_261
*423 FILLER_11_27
*424 FILLER_11_273
*425 FILLER_11_279
*426 FILLER_11_281
*427 FILLER_11_293
*428 FILLER_11_3
*429 FILLER_11_39
*430 FILLER_11_51
*431 FILLER_11_55
*432 FILLER_11_57
*433 FILLER_11_69
*434 FILLER_11_81
*435 FILLER_11_93
*436 FILLER_12_123
*437 FILLER_12_141
*438 FILLER_12_15
*439 FILLER_12_153
*440 FILLER_12_165
*441 FILLER_12_193
*442 FILLER_12_197
*443 FILLER_12_210
*444 FILLER_12_220
*445 FILLER_12_232
*446 FILLER_12_244
*447 FILLER_12_253
*448 FILLER_12_265
*449 FILLER_12_27
*450 FILLER_12_277
*451 FILLER_12_289
*452 FILLER_12_29
*453 FILLER_12_297
*454 FILLER_12_3
*455 FILLER_12_41
*456 FILLER_12_53
*457 FILLER_12_65
*458 FILLER_12_77
*459 FILLER_12_83
*460 FILLER_12_85
*461 FILLER_12_97
*462 FILLER_13_105
*463 FILLER_13_111
*464 FILLER_13_15
*465 FILLER_13_155
*466 FILLER_13_160
*467 FILLER_13_169
*468 FILLER_13_192
*469 FILLER_13_198
*470 FILLER_13_219
*471 FILLER_13_223
*472 FILLER_13_225
*473 FILLER_13_237
*474 FILLER_13_249
*475 FILLER_13_261
*476 FILLER_13_27
*477 FILLER_13_273
*478 FILLER_13_279
*479 FILLER_13_281
*480 FILLER_13_293
*481 FILLER_13_3
*482 FILLER_13_39
*483 FILLER_13_51
*484 FILLER_13_55
*485 FILLER_13_57
*486 FILLER_13_69
*487 FILLER_13_81
*488 FILLER_13_93
*489 FILLER_14_105
*490 FILLER_14_130
*491 FILLER_14_149
*492 FILLER_14_15
*493 FILLER_14_157
*494 FILLER_14_179
*495 FILLER_14_185
*496 FILLER_14_194
*497 FILLER_14_197
*498 FILLER_14_201
*499 FILLER_14_210
*500 FILLER_14_224
*501 FILLER_14_236
*502 FILLER_14_248
*503 FILLER_14_253
*504 FILLER_14_265
*505 FILLER_14_27
*506 FILLER_14_277
*507 FILLER_14_289
*508 FILLER_14_29
*509 FILLER_14_297
*510 FILLER_14_3
*511 FILLER_14_41
*512 FILLER_14_53
*513 FILLER_14_65
*514 FILLER_14_77
*515 FILLER_14_83
*516 FILLER_14_85
*517 FILLER_14_97
*518 FILLER_15_105
*519 FILLER_15_111
*520 FILLER_15_113
*521 FILLER_15_125
*522 FILLER_15_139
*523 FILLER_15_15
*524 FILLER_15_155
*525 FILLER_15_159
*526 FILLER_15_167
*527 FILLER_15_169
*528 FILLER_15_181
*529 FILLER_15_193
*530 FILLER_15_201
*531 FILLER_15_210
*532 FILLER_15_222
*533 FILLER_15_225
*534 FILLER_15_237
*535 FILLER_15_249
*536 FILLER_15_261
*537 FILLER_15_27
*538 FILLER_15_273
*539 FILLER_15_279
*540 FILLER_15_281
*541 FILLER_15_293
*542 FILLER_15_3
*543 FILLER_15_39
*544 FILLER_15_51
*545 FILLER_15_55
*546 FILLER_15_57
*547 FILLER_15_69
*548 FILLER_15_81
*549 FILLER_15_93
*550 FILLER_16_109
*551 FILLER_16_121
*552 FILLER_16_138
*553 FILLER_16_141
*554 FILLER_16_15
*555 FILLER_16_165
*556 FILLER_16_177
*557 FILLER_16_189
*558 FILLER_16_195
*559 FILLER_16_197
*560 FILLER_16_209
*561 FILLER_16_233
*562 FILLER_16_245
*563 FILLER_16_251
*564 FILLER_16_253
*565 FILLER_16_265
*566 FILLER_16_27
*567 FILLER_16_277
*568 FILLER_16_289
*569 FILLER_16_29
*570 FILLER_16_297
*571 FILLER_16_3
*572 FILLER_16_41
*573 FILLER_16_53
*574 FILLER_16_65
*575 FILLER_16_77
*576 FILLER_16_83
*577 FILLER_16_85
*578 FILLER_16_97
*579 FILLER_17_113
*580 FILLER_17_15
*581 FILLER_17_167
*582 FILLER_17_169
*583 FILLER_17_175
*584 FILLER_17_187
*585 FILLER_17_199
*586 FILLER_17_211
*587 FILLER_17_223
*588 FILLER_17_225
*589 FILLER_17_237
*590 FILLER_17_249
*591 FILLER_17_261
*592 FILLER_17_27
*593 FILLER_17_273
*594 FILLER_17_279
*595 FILLER_17_281
*596 FILLER_17_293
*597 FILLER_17_3
*598 FILLER_17_39
*599 FILLER_17_51
*600 FILLER_17_55
*601 FILLER_17_57
*602 FILLER_17_69
*603 FILLER_17_81
*604 FILLER_17_89
*605 FILLER_18_11
*606 FILLER_18_15
*607 FILLER_18_161
*608 FILLER_18_173
*609 FILLER_18_197
*610 FILLER_18_216
*611 FILLER_18_227
*612 FILLER_18_239
*613 FILLER_18_251
*614 FILLER_18_253
*615 FILLER_18_265
*616 FILLER_18_27
*617 FILLER_18_277
*618 FILLER_18_289
*619 FILLER_18_29
*620 FILLER_18_297
*621 FILLER_18_41
*622 FILLER_18_53
*623 FILLER_18_65
*624 FILLER_18_77
*625 FILLER_18_83
*626 FILLER_18_85
*627 FILLER_18_93
*628 FILLER_19_113
*629 FILLER_19_118
*630 FILLER_19_15
*631 FILLER_19_169
*632 FILLER_19_185
*633 FILLER_19_197
*634 FILLER_19_225
*635 FILLER_19_237
*636 FILLER_19_249
*637 FILLER_19_261
*638 FILLER_19_27
*639 FILLER_19_273
*640 FILLER_19_279
*641 FILLER_19_281
*642 FILLER_19_293
*643 FILLER_19_3
*644 FILLER_19_39
*645 FILLER_19_51
*646 FILLER_19_55
*647 FILLER_19_57
*648 FILLER_19_69
*649 FILLER_19_81
*650 FILLER_19_93
*651 FILLER_19_99
*652 FILLER_1_105
*653 FILLER_1_111
*654 FILLER_1_113
*655 FILLER_1_125
*656 FILLER_1_137
*657 FILLER_1_149
*658 FILLER_1_15
*659 FILLER_1_161
*660 FILLER_1_167
*661 FILLER_1_175
*662 FILLER_1_185
*663 FILLER_1_197
*664 FILLER_1_209
*665 FILLER_1_221
*666 FILLER_1_225
*667 FILLER_1_237
*668 FILLER_1_249
*669 FILLER_1_261
*670 FILLER_1_27
*671 FILLER_1_273
*672 FILLER_1_279
*673 FILLER_1_281
*674 FILLER_1_293
*675 FILLER_1_3
*676 FILLER_1_39
*677 FILLER_1_51
*678 FILLER_1_55
*679 FILLER_1_57
*680 FILLER_1_69
*681 FILLER_1_81
*682 FILLER_1_93
*683 FILLER_20_103
*684 FILLER_20_110
*685 FILLER_20_132
*686 FILLER_20_141
*687 FILLER_20_15
*688 FILLER_20_157
*689 FILLER_20_161
*690 FILLER_20_168
*691 FILLER_20_175
*692 FILLER_20_200
*693 FILLER_20_216
*694 FILLER_20_228
*695 FILLER_20_240
*696 FILLER_20_253
*697 FILLER_20_265
*698 FILLER_20_27
*699 FILLER_20_277
*700 FILLER_20_289
*701 FILLER_20_29
*702 FILLER_20_3
*703 FILLER_20_41
*704 FILLER_20_53
*705 FILLER_20_65
*706 FILLER_20_77
*707 FILLER_20_83
*708 FILLER_20_85
*709 FILLER_20_97
*710 FILLER_21_105
*711 FILLER_21_111
*712 FILLER_21_113
*713 FILLER_21_126
*714 FILLER_21_132
*715 FILLER_21_137
*716 FILLER_21_15
*717 FILLER_21_155
*718 FILLER_21_167
*719 FILLER_21_169
*720 FILLER_21_187
*721 FILLER_21_205
*722 FILLER_21_213
*723 FILLER_21_219
*724 FILLER_21_223
*725 FILLER_21_225
*726 FILLER_21_237
*727 FILLER_21_249
*728 FILLER_21_261
*729 FILLER_21_27
*730 FILLER_21_273
*731 FILLER_21_279
*732 FILLER_21_281
*733 FILLER_21_293
*734 FILLER_21_3
*735 FILLER_21_39
*736 FILLER_21_51
*737 FILLER_21_55
*738 FILLER_21_57
*739 FILLER_21_69
*740 FILLER_21_81
*741 FILLER_21_93
*742 FILLER_22_137
*743 FILLER_22_141
*744 FILLER_22_15
*745 FILLER_22_192
*746 FILLER_22_197
*747 FILLER_22_205
*748 FILLER_22_236
*749 FILLER_22_248
*750 FILLER_22_253
*751 FILLER_22_265
*752 FILLER_22_27
*753 FILLER_22_277
*754 FILLER_22_289
*755 FILLER_22_29
*756 FILLER_22_3
*757 FILLER_22_41
*758 FILLER_22_53
*759 FILLER_22_65
*760 FILLER_22_77
*761 FILLER_22_83
*762 FILLER_22_85
*763 FILLER_22_97
*764 FILLER_23_121
*765 FILLER_23_133
*766 FILLER_23_139
*767 FILLER_23_15
*768 FILLER_23_165
*769 FILLER_23_181
*770 FILLER_23_189
*771 FILLER_23_219
*772 FILLER_23_223
*773 FILLER_23_233
*774 FILLER_23_245
*775 FILLER_23_257
*776 FILLER_23_269
*777 FILLER_23_27
*778 FILLER_23_277
*779 FILLER_23_281
*780 FILLER_23_293
*781 FILLER_23_3
*782 FILLER_23_39
*783 FILLER_23_51
*784 FILLER_23_55
*785 FILLER_23_57
*786 FILLER_23_69
*787 FILLER_23_81
*788 FILLER_23_89
*789 FILLER_24_106
*790 FILLER_24_11
*791 FILLER_24_112
*792 FILLER_24_117
*793 FILLER_24_129
*794 FILLER_24_141
*795 FILLER_24_147
*796 FILLER_24_152
*797 FILLER_24_175
*798 FILLER_24_194
*799 FILLER_24_197
*800 FILLER_24_225
*801 FILLER_24_23
*802 FILLER_24_237
*803 FILLER_24_249
*804 FILLER_24_253
*805 FILLER_24_265
*806 FILLER_24_27
*807 FILLER_24_277
*808 FILLER_24_289
*809 FILLER_24_29
*810 FILLER_24_297
*811 FILLER_24_41
*812 FILLER_24_53
*813 FILLER_24_65
*814 FILLER_24_77
*815 FILLER_24_83
*816 FILLER_24_85
*817 FILLER_25_108
*818 FILLER_25_117
*819 FILLER_25_125
*820 FILLER_25_15
*821 FILLER_25_154
*822 FILLER_25_163
*823 FILLER_25_167
*824 FILLER_25_169
*825 FILLER_25_181
*826 FILLER_25_193
*827 FILLER_25_205
*828 FILLER_25_222
*829 FILLER_25_225
*830 FILLER_25_237
*831 FILLER_25_249
*832 FILLER_25_261
*833 FILLER_25_27
*834 FILLER_25_273
*835 FILLER_25_279
*836 FILLER_25_281
*837 FILLER_25_293
*838 FILLER_25_3
*839 FILLER_25_39
*840 FILLER_25_51
*841 FILLER_25_55
*842 FILLER_25_57
*843 FILLER_25_69
*844 FILLER_25_81
*845 FILLER_25_87
*846 FILLER_25_99
*847 FILLER_26_112
*848 FILLER_26_120
*849 FILLER_26_126
*850 FILLER_26_132
*851 FILLER_26_141
*852 FILLER_26_15
*853 FILLER_26_172
*854 FILLER_26_185
*855 FILLER_26_190
*856 FILLER_26_197
*857 FILLER_26_207
*858 FILLER_26_239
*859 FILLER_26_251
*860 FILLER_26_253
*861 FILLER_26_265
*862 FILLER_26_27
*863 FILLER_26_277
*864 FILLER_26_289
*865 FILLER_26_29
*866 FILLER_26_3
*867 FILLER_26_41
*868 FILLER_26_53
*869 FILLER_26_65
*870 FILLER_26_77
*871 FILLER_26_83
*872 FILLER_26_85
*873 FILLER_27_113
*874 FILLER_27_125
*875 FILLER_27_131
*876 FILLER_27_15
*877 FILLER_27_159
*878 FILLER_27_167
*879 FILLER_27_177
*880 FILLER_27_183
*881 FILLER_27_221
*882 FILLER_27_233
*883 FILLER_27_245
*884 FILLER_27_257
*885 FILLER_27_269
*886 FILLER_27_27
*887 FILLER_27_277
*888 FILLER_27_281
*889 FILLER_27_293
*890 FILLER_27_3
*891 FILLER_27_39
*892 FILLER_27_51
*893 FILLER_27_55
*894 FILLER_27_57
*895 FILLER_27_69
*896 FILLER_27_81
*897 FILLER_28_11
*898 FILLER_28_125
*899 FILLER_28_137
*900 FILLER_28_141
*901 FILLER_28_173
*902 FILLER_28_185
*903 FILLER_28_193
*904 FILLER_28_197
*905 FILLER_28_229
*906 FILLER_28_23
*907 FILLER_28_241
*908 FILLER_28_249
*909 FILLER_28_253
*910 FILLER_28_265
*911 FILLER_28_27
*912 FILLER_28_277
*913 FILLER_28_289
*914 FILLER_28_29
*915 FILLER_28_297
*916 FILLER_28_41
*917 FILLER_28_53
*918 FILLER_28_65
*919 FILLER_28_77
*920 FILLER_29_111
*921 FILLER_29_117
*922 FILLER_29_140
*923 FILLER_29_15
*924 FILLER_29_152
*925 FILLER_29_164
*926 FILLER_29_169
*927 FILLER_29_181
*928 FILLER_29_191
*929 FILLER_29_199
*930 FILLER_29_213
*931 FILLER_29_223
*932 FILLER_29_236
*933 FILLER_29_248
*934 FILLER_29_260
*935 FILLER_29_27
*936 FILLER_29_272
*937 FILLER_29_281
*938 FILLER_29_293
*939 FILLER_29_3
*940 FILLER_29_39
*941 FILLER_29_51
*942 FILLER_29_55
*943 FILLER_29_57
*944 FILLER_29_69
*945 FILLER_29_81
*946 FILLER_2_109
*947 FILLER_2_121
*948 FILLER_2_133
*949 FILLER_2_139
*950 FILLER_2_141
*951 FILLER_2_15
*952 FILLER_2_153
*953 FILLER_2_165
*954 FILLER_2_177
*955 FILLER_2_189
*956 FILLER_2_195
*957 FILLER_2_197
*958 FILLER_2_209
*959 FILLER_2_221
*960 FILLER_2_233
*961 FILLER_2_245
*962 FILLER_2_251
*963 FILLER_2_253
*964 FILLER_2_265
*965 FILLER_2_27
*966 FILLER_2_277
*967 FILLER_2_289
*968 FILLER_2_29
*969 FILLER_2_297
*970 FILLER_2_3
*971 FILLER_2_41
*972 FILLER_2_53
*973 FILLER_2_65
*974 FILLER_2_77
*975 FILLER_2_83
*976 FILLER_2_85
*977 FILLER_2_97
*978 FILLER_30_113
*979 FILLER_30_119
*980 FILLER_30_132
*981 FILLER_30_141
*982 FILLER_30_15
*983 FILLER_30_153
*984 FILLER_30_165
*985 FILLER_30_174
*986 FILLER_30_181
*987 FILLER_30_237
*988 FILLER_30_249
*989 FILLER_30_253
*990 FILLER_30_265
*991 FILLER_30_27
*992 FILLER_30_277
*993 FILLER_30_289
*994 FILLER_30_29
*995 FILLER_30_3
*996 FILLER_30_41
*997 FILLER_30_53
*998 FILLER_30_65
*999 FILLER_30_77
*1000 FILLER_30_83
*1001 FILLER_30_85
*1002 FILLER_30_97
*1003 FILLER_31_108
*1004 FILLER_31_113
*1005 FILLER_31_119
*1006 FILLER_31_152
*1007 FILLER_31_164
*1008 FILLER_31_169
*1009 FILLER_31_19
*1010 FILLER_31_191
*1011 FILLER_31_197
*1012 FILLER_31_206
*1013 FILLER_31_210
*1014 FILLER_31_219
*1015 FILLER_31_223
*1016 FILLER_31_225
*1017 FILLER_31_237
*1018 FILLER_31_249
*1019 FILLER_31_261
*1020 FILLER_31_273
*1021 FILLER_31_279
*1022 FILLER_31_281
*1023 FILLER_31_293
*1024 FILLER_31_31
*1025 FILLER_31_43
*1026 FILLER_31_55
*1027 FILLER_31_57
*1028 FILLER_31_69
*1029 FILLER_31_7
*1030 FILLER_31_81
*1031 FILLER_31_87
*1032 FILLER_32_108
*1033 FILLER_32_149
*1034 FILLER_32_15
*1035 FILLER_32_161
*1036 FILLER_32_167
*1037 FILLER_32_179
*1038 FILLER_32_191
*1039 FILLER_32_195
*1040 FILLER_32_197
*1041 FILLER_32_209
*1042 FILLER_32_215
*1043 FILLER_32_224
*1044 FILLER_32_236
*1045 FILLER_32_248
*1046 FILLER_32_253
*1047 FILLER_32_265
*1048 FILLER_32_27
*1049 FILLER_32_277
*1050 FILLER_32_289
*1051 FILLER_32_29
*1052 FILLER_32_297
*1053 FILLER_32_3
*1054 FILLER_32_41
*1055 FILLER_32_53
*1056 FILLER_32_65
*1057 FILLER_32_77
*1058 FILLER_32_83
*1059 FILLER_32_85
*1060 FILLER_32_91
*1061 FILLER_33_101
*1062 FILLER_33_109
*1063 FILLER_33_113
*1064 FILLER_33_125
*1065 FILLER_33_133
*1066 FILLER_33_142
*1067 FILLER_33_146
*1068 FILLER_33_15
*1069 FILLER_33_169
*1070 FILLER_33_178
*1071 FILLER_33_190
*1072 FILLER_33_196
*1073 FILLER_33_200
*1074 FILLER_33_205
*1075 FILLER_33_209
*1076 FILLER_33_221
*1077 FILLER_33_225
*1078 FILLER_33_237
*1079 FILLER_33_249
*1080 FILLER_33_261
*1081 FILLER_33_27
*1082 FILLER_33_273
*1083 FILLER_33_279
*1084 FILLER_33_281
*1085 FILLER_33_293
*1086 FILLER_33_3
*1087 FILLER_33_39
*1088 FILLER_33_51
*1089 FILLER_33_55
*1090 FILLER_33_57
*1091 FILLER_33_69
*1092 FILLER_33_81
*1093 FILLER_33_93
*1094 FILLER_33_97
*1095 FILLER_34_121
*1096 FILLER_34_134
*1097 FILLER_34_139
*1098 FILLER_34_141
*1099 FILLER_34_15
*1100 FILLER_34_153
*1101 FILLER_34_233
*1102 FILLER_34_245
*1103 FILLER_34_251
*1104 FILLER_34_253
*1105 FILLER_34_265
*1106 FILLER_34_27
*1107 FILLER_34_277
*1108 FILLER_34_289
*1109 FILLER_34_29
*1110 FILLER_34_3
*1111 FILLER_34_41
*1112 FILLER_34_53
*1113 FILLER_34_65
*1114 FILLER_34_77
*1115 FILLER_34_83
*1116 FILLER_34_85
*1117 FILLER_34_97
*1118 FILLER_35_133
*1119 FILLER_35_143
*1120 FILLER_35_15
*1121 FILLER_35_155
*1122 FILLER_35_167
*1123 FILLER_35_169
*1124 FILLER_35_192
*1125 FILLER_35_222
*1126 FILLER_35_225
*1127 FILLER_35_237
*1128 FILLER_35_249
*1129 FILLER_35_261
*1130 FILLER_35_27
*1131 FILLER_35_273
*1132 FILLER_35_279
*1133 FILLER_35_281
*1134 FILLER_35_293
*1135 FILLER_35_3
*1136 FILLER_35_39
*1137 FILLER_35_51
*1138 FILLER_35_55
*1139 FILLER_35_57
*1140 FILLER_35_69
*1141 FILLER_35_81
*1142 FILLER_35_93
*1143 FILLER_36_110
*1144 FILLER_36_149
*1145 FILLER_36_15
*1146 FILLER_36_153
*1147 FILLER_36_158
*1148 FILLER_36_170
*1149 FILLER_36_194
*1150 FILLER_36_213
*1151 FILLER_36_217
*1152 FILLER_36_234
*1153 FILLER_36_246
*1154 FILLER_36_253
*1155 FILLER_36_265
*1156 FILLER_36_27
*1157 FILLER_36_277
*1158 FILLER_36_289
*1159 FILLER_36_29
*1160 FILLER_36_297
*1161 FILLER_36_3
*1162 FILLER_36_41
*1163 FILLER_36_53
*1164 FILLER_36_65
*1165 FILLER_36_77
*1166 FILLER_36_83
*1167 FILLER_36_85
*1168 FILLER_36_97
*1169 FILLER_37_111
*1170 FILLER_37_116
*1171 FILLER_37_122
*1172 FILLER_37_135
*1173 FILLER_37_147
*1174 FILLER_37_15
*1175 FILLER_37_151
*1176 FILLER_37_160
*1177 FILLER_37_169
*1178 FILLER_37_184
*1179 FILLER_37_195
*1180 FILLER_37_207
*1181 FILLER_37_217
*1182 FILLER_37_223
*1183 FILLER_37_225
*1184 FILLER_37_237
*1185 FILLER_37_249
*1186 FILLER_37_261
*1187 FILLER_37_27
*1188 FILLER_37_273
*1189 FILLER_37_279
*1190 FILLER_37_281
*1191 FILLER_37_293
*1192 FILLER_37_3
*1193 FILLER_37_39
*1194 FILLER_37_51
*1195 FILLER_37_55
*1196 FILLER_37_57
*1197 FILLER_37_69
*1198 FILLER_37_81
*1199 FILLER_37_89
*1200 FILLER_38_113
*1201 FILLER_38_119
*1202 FILLER_38_141
*1203 FILLER_38_145
*1204 FILLER_38_15
*1205 FILLER_38_166
*1206 FILLER_38_190
*1207 FILLER_38_197
*1208 FILLER_38_209
*1209 FILLER_38_221
*1210 FILLER_38_233
*1211 FILLER_38_245
*1212 FILLER_38_251
*1213 FILLER_38_253
*1214 FILLER_38_265
*1215 FILLER_38_27
*1216 FILLER_38_277
*1217 FILLER_38_289
*1218 FILLER_38_29
*1219 FILLER_38_297
*1220 FILLER_38_3
*1221 FILLER_38_41
*1222 FILLER_38_53
*1223 FILLER_38_65
*1224 FILLER_38_77
*1225 FILLER_38_83
*1226 FILLER_38_85
*1227 FILLER_39_104
*1228 FILLER_39_113
*1229 FILLER_39_125
*1230 FILLER_39_144
*1231 FILLER_39_15
*1232 FILLER_39_169
*1233 FILLER_39_196
*1234 FILLER_39_208
*1235 FILLER_39_220
*1236 FILLER_39_225
*1237 FILLER_39_237
*1238 FILLER_39_249
*1239 FILLER_39_261
*1240 FILLER_39_27
*1241 FILLER_39_273
*1242 FILLER_39_279
*1243 FILLER_39_281
*1244 FILLER_39_293
*1245 FILLER_39_3
*1246 FILLER_39_39
*1247 FILLER_39_51
*1248 FILLER_39_55
*1249 FILLER_39_57
*1250 FILLER_39_69
*1251 FILLER_39_81
*1252 FILLER_39_93
*1253 FILLER_3_105
*1254 FILLER_3_111
*1255 FILLER_3_113
*1256 FILLER_3_125
*1257 FILLER_3_137
*1258 FILLER_3_149
*1259 FILLER_3_15
*1260 FILLER_3_161
*1261 FILLER_3_167
*1262 FILLER_3_169
*1263 FILLER_3_181
*1264 FILLER_3_193
*1265 FILLER_3_205
*1266 FILLER_3_217
*1267 FILLER_3_223
*1268 FILLER_3_225
*1269 FILLER_3_237
*1270 FILLER_3_249
*1271 FILLER_3_261
*1272 FILLER_3_27
*1273 FILLER_3_273
*1274 FILLER_3_279
*1275 FILLER_3_281
*1276 FILLER_3_293
*1277 FILLER_3_3
*1278 FILLER_3_39
*1279 FILLER_3_51
*1280 FILLER_3_55
*1281 FILLER_3_57
*1282 FILLER_3_69
*1283 FILLER_3_81
*1284 FILLER_3_93
*1285 FILLER_40_109
*1286 FILLER_40_121
*1287 FILLER_40_129
*1288 FILLER_40_134
*1289 FILLER_40_141
*1290 FILLER_40_15
*1291 FILLER_40_153
*1292 FILLER_40_159
*1293 FILLER_40_171
*1294 FILLER_40_183
*1295 FILLER_40_195
*1296 FILLER_40_197
*1297 FILLER_40_209
*1298 FILLER_40_221
*1299 FILLER_40_233
*1300 FILLER_40_245
*1301 FILLER_40_251
*1302 FILLER_40_253
*1303 FILLER_40_265
*1304 FILLER_40_27
*1305 FILLER_40_277
*1306 FILLER_40_289
*1307 FILLER_40_29
*1308 FILLER_40_297
*1309 FILLER_40_3
*1310 FILLER_40_41
*1311 FILLER_40_53
*1312 FILLER_40_65
*1313 FILLER_40_77
*1314 FILLER_40_83
*1315 FILLER_40_85
*1316 FILLER_40_97
*1317 FILLER_41_105
*1318 FILLER_41_111
*1319 FILLER_41_113
*1320 FILLER_41_125
*1321 FILLER_41_137
*1322 FILLER_41_149
*1323 FILLER_41_15
*1324 FILLER_41_161
*1325 FILLER_41_167
*1326 FILLER_41_169
*1327 FILLER_41_181
*1328 FILLER_41_193
*1329 FILLER_41_205
*1330 FILLER_41_217
*1331 FILLER_41_223
*1332 FILLER_41_225
*1333 FILLER_41_237
*1334 FILLER_41_249
*1335 FILLER_41_261
*1336 FILLER_41_27
*1337 FILLER_41_273
*1338 FILLER_41_279
*1339 FILLER_41_281
*1340 FILLER_41_293
*1341 FILLER_41_3
*1342 FILLER_41_39
*1343 FILLER_41_51
*1344 FILLER_41_55
*1345 FILLER_41_57
*1346 FILLER_41_69
*1347 FILLER_41_81
*1348 FILLER_41_93
*1349 FILLER_42_109
*1350 FILLER_42_121
*1351 FILLER_42_133
*1352 FILLER_42_139
*1353 FILLER_42_141
*1354 FILLER_42_15
*1355 FILLER_42_153
*1356 FILLER_42_165
*1357 FILLER_42_177
*1358 FILLER_42_189
*1359 FILLER_42_195
*1360 FILLER_42_197
*1361 FILLER_42_209
*1362 FILLER_42_221
*1363 FILLER_42_233
*1364 FILLER_42_245
*1365 FILLER_42_251
*1366 FILLER_42_253
*1367 FILLER_42_265
*1368 FILLER_42_27
*1369 FILLER_42_277
*1370 FILLER_42_289
*1371 FILLER_42_29
*1372 FILLER_42_297
*1373 FILLER_42_3
*1374 FILLER_42_41
*1375 FILLER_42_53
*1376 FILLER_42_65
*1377 FILLER_42_77
*1378 FILLER_42_83
*1379 FILLER_42_85
*1380 FILLER_42_97
*1381 FILLER_43_105
*1382 FILLER_43_111
*1383 FILLER_43_113
*1384 FILLER_43_125
*1385 FILLER_43_137
*1386 FILLER_43_149
*1387 FILLER_43_15
*1388 FILLER_43_161
*1389 FILLER_43_167
*1390 FILLER_43_169
*1391 FILLER_43_181
*1392 FILLER_43_193
*1393 FILLER_43_205
*1394 FILLER_43_217
*1395 FILLER_43_223
*1396 FILLER_43_225
*1397 FILLER_43_237
*1398 FILLER_43_249
*1399 FILLER_43_261
*1400 FILLER_43_27
*1401 FILLER_43_273
*1402 FILLER_43_279
*1403 FILLER_43_281
*1404 FILLER_43_293
*1405 FILLER_43_3
*1406 FILLER_43_39
*1407 FILLER_43_51
*1408 FILLER_43_55
*1409 FILLER_43_57
*1410 FILLER_43_69
*1411 FILLER_43_81
*1412 FILLER_43_93
*1413 FILLER_44_109
*1414 FILLER_44_121
*1415 FILLER_44_133
*1416 FILLER_44_139
*1417 FILLER_44_141
*1418 FILLER_44_15
*1419 FILLER_44_153
*1420 FILLER_44_165
*1421 FILLER_44_177
*1422 FILLER_44_189
*1423 FILLER_44_195
*1424 FILLER_44_197
*1425 FILLER_44_209
*1426 FILLER_44_221
*1427 FILLER_44_233
*1428 FILLER_44_245
*1429 FILLER_44_251
*1430 FILLER_44_253
*1431 FILLER_44_265
*1432 FILLER_44_27
*1433 FILLER_44_277
*1434 FILLER_44_289
*1435 FILLER_44_29
*1436 FILLER_44_297
*1437 FILLER_44_3
*1438 FILLER_44_41
*1439 FILLER_44_53
*1440 FILLER_44_65
*1441 FILLER_44_77
*1442 FILLER_44_83
*1443 FILLER_44_85
*1444 FILLER_44_97
*1445 FILLER_45_105
*1446 FILLER_45_111
*1447 FILLER_45_113
*1448 FILLER_45_125
*1449 FILLER_45_137
*1450 FILLER_45_149
*1451 FILLER_45_15
*1452 FILLER_45_161
*1453 FILLER_45_167
*1454 FILLER_45_169
*1455 FILLER_45_181
*1456 FILLER_45_189
*1457 FILLER_45_195
*1458 FILLER_45_207
*1459 FILLER_45_219
*1460 FILLER_45_223
*1461 FILLER_45_225
*1462 FILLER_45_237
*1463 FILLER_45_249
*1464 FILLER_45_261
*1465 FILLER_45_27
*1466 FILLER_45_273
*1467 FILLER_45_279
*1468 FILLER_45_281
*1469 FILLER_45_293
*1470 FILLER_45_3
*1471 FILLER_45_39
*1472 FILLER_45_51
*1473 FILLER_45_55
*1474 FILLER_45_57
*1475 FILLER_45_69
*1476 FILLER_45_81
*1477 FILLER_45_93
*1478 FILLER_46_105
*1479 FILLER_46_111
*1480 FILLER_46_113
*1481 FILLER_46_125
*1482 FILLER_46_141
*1483 FILLER_46_15
*1484 FILLER_46_153
*1485 FILLER_46_167
*1486 FILLER_46_169
*1487 FILLER_46_181
*1488 FILLER_46_193
*1489 FILLER_46_197
*1490 FILLER_46_209
*1491 FILLER_46_223
*1492 FILLER_46_225
*1493 FILLER_46_237
*1494 FILLER_46_249
*1495 FILLER_46_253
*1496 FILLER_46_265
*1497 FILLER_46_27
*1498 FILLER_46_277
*1499 FILLER_46_281
*1500 FILLER_46_29
*1501 FILLER_46_293
*1502 FILLER_46_3
*1503 FILLER_46_41
*1504 FILLER_46_53
*1505 FILLER_46_57
*1506 FILLER_46_69
*1507 FILLER_46_81
*1508 FILLER_46_85
*1509 FILLER_46_97
*1510 FILLER_4_109
*1511 FILLER_4_121
*1512 FILLER_4_133
*1513 FILLER_4_139
*1514 FILLER_4_141
*1515 FILLER_4_15
*1516 FILLER_4_153
*1517 FILLER_4_165
*1518 FILLER_4_177
*1519 FILLER_4_189
*1520 FILLER_4_195
*1521 FILLER_4_197
*1522 FILLER_4_209
*1523 FILLER_4_221
*1524 FILLER_4_233
*1525 FILLER_4_245
*1526 FILLER_4_251
*1527 FILLER_4_253
*1528 FILLER_4_265
*1529 FILLER_4_27
*1530 FILLER_4_277
*1531 FILLER_4_289
*1532 FILLER_4_29
*1533 FILLER_4_297
*1534 FILLER_4_3
*1535 FILLER_4_41
*1536 FILLER_4_53
*1537 FILLER_4_65
*1538 FILLER_4_77
*1539 FILLER_4_83
*1540 FILLER_4_85
*1541 FILLER_4_97
*1542 FILLER_5_105
*1543 FILLER_5_111
*1544 FILLER_5_113
*1545 FILLER_5_125
*1546 FILLER_5_137
*1547 FILLER_5_149
*1548 FILLER_5_15
*1549 FILLER_5_161
*1550 FILLER_5_167
*1551 FILLER_5_169
*1552 FILLER_5_181
*1553 FILLER_5_193
*1554 FILLER_5_205
*1555 FILLER_5_217
*1556 FILLER_5_223
*1557 FILLER_5_225
*1558 FILLER_5_237
*1559 FILLER_5_249
*1560 FILLER_5_261
*1561 FILLER_5_27
*1562 FILLER_5_273
*1563 FILLER_5_279
*1564 FILLER_5_281
*1565 FILLER_5_293
*1566 FILLER_5_3
*1567 FILLER_5_39
*1568 FILLER_5_51
*1569 FILLER_5_55
*1570 FILLER_5_57
*1571 FILLER_5_69
*1572 FILLER_5_81
*1573 FILLER_5_93
*1574 FILLER_6_109
*1575 FILLER_6_121
*1576 FILLER_6_133
*1577 FILLER_6_139
*1578 FILLER_6_141
*1579 FILLER_6_15
*1580 FILLER_6_153
*1581 FILLER_6_165
*1582 FILLER_6_177
*1583 FILLER_6_189
*1584 FILLER_6_195
*1585 FILLER_6_197
*1586 FILLER_6_209
*1587 FILLER_6_221
*1588 FILLER_6_233
*1589 FILLER_6_245
*1590 FILLER_6_251
*1591 FILLER_6_253
*1592 FILLER_6_265
*1593 FILLER_6_27
*1594 FILLER_6_277
*1595 FILLER_6_289
*1596 FILLER_6_29
*1597 FILLER_6_297
*1598 FILLER_6_3
*1599 FILLER_6_41
*1600 FILLER_6_53
*1601 FILLER_6_65
*1602 FILLER_6_77
*1603 FILLER_6_83
*1604 FILLER_6_85
*1605 FILLER_6_97
*1606 FILLER_7_105
*1607 FILLER_7_111
*1608 FILLER_7_113
*1609 FILLER_7_125
*1610 FILLER_7_137
*1611 FILLER_7_149
*1612 FILLER_7_15
*1613 FILLER_7_161
*1614 FILLER_7_167
*1615 FILLER_7_169
*1616 FILLER_7_185
*1617 FILLER_7_197
*1618 FILLER_7_209
*1619 FILLER_7_221
*1620 FILLER_7_225
*1621 FILLER_7_237
*1622 FILLER_7_249
*1623 FILLER_7_261
*1624 FILLER_7_27
*1625 FILLER_7_273
*1626 FILLER_7_279
*1627 FILLER_7_281
*1628 FILLER_7_293
*1629 FILLER_7_3
*1630 FILLER_7_39
*1631 FILLER_7_51
*1632 FILLER_7_55
*1633 FILLER_7_57
*1634 FILLER_7_69
*1635 FILLER_7_81
*1636 FILLER_7_93
*1637 FILLER_8_109
*1638 FILLER_8_121
*1639 FILLER_8_133
*1640 FILLER_8_139
*1641 FILLER_8_141
*1642 FILLER_8_15
*1643 FILLER_8_153
*1644 FILLER_8_165
*1645 FILLER_8_177
*1646 FILLER_8_188
*1647 FILLER_8_197
*1648 FILLER_8_209
*1649 FILLER_8_221
*1650 FILLER_8_233
*1651 FILLER_8_245
*1652 FILLER_8_251
*1653 FILLER_8_253
*1654 FILLER_8_265
*1655 FILLER_8_27
*1656 FILLER_8_277
*1657 FILLER_8_289
*1658 FILLER_8_29
*1659 FILLER_8_297
*1660 FILLER_8_3
*1661 FILLER_8_41
*1662 FILLER_8_53
*1663 FILLER_8_65
*1664 FILLER_8_77
*1665 FILLER_8_83
*1666 FILLER_8_85
*1667 FILLER_8_97
*1668 FILLER_9_105
*1669 FILLER_9_111
*1670 FILLER_9_113
*1671 FILLER_9_125
*1672 FILLER_9_137
*1673 FILLER_9_149
*1674 FILLER_9_15
*1675 FILLER_9_157
*1676 FILLER_9_169
*1677 FILLER_9_197
*1678 FILLER_9_209
*1679 FILLER_9_221
*1680 FILLER_9_225
*1681 FILLER_9_237
*1682 FILLER_9_249
*1683 FILLER_9_261
*1684 FILLER_9_27
*1685 FILLER_9_273
*1686 FILLER_9_279
*1687 FILLER_9_281
*1688 FILLER_9_293
*1689 FILLER_9_3
*1690 FILLER_9_39
*1691 FILLER_9_51
*1692 FILLER_9_55
*1693 FILLER_9_57
*1694 FILLER_9_69
*1695 FILLER_9_81
*1696 FILLER_9_93
*1697 PHY_EDGE_ROW_0_Left_47
*1698 PHY_EDGE_ROW_0_Right_0
*1699 PHY_EDGE_ROW_10_Left_57
*1700 PHY_EDGE_ROW_10_Right_10
*1701 PHY_EDGE_ROW_11_Left_58
*1702 PHY_EDGE_ROW_11_Right_11
*1703 PHY_EDGE_ROW_12_Left_59
*1704 PHY_EDGE_ROW_12_Right_12
*1705 PHY_EDGE_ROW_13_Left_60
*1706 PHY_EDGE_ROW_13_Right_13
*1707 PHY_EDGE_ROW_14_Left_61
*1708 PHY_EDGE_ROW_14_Right_14
*1709 PHY_EDGE_ROW_15_Left_62
*1710 PHY_EDGE_ROW_15_Right_15
*1711 PHY_EDGE_ROW_16_Left_63
*1712 PHY_EDGE_ROW_16_Right_16
*1713 PHY_EDGE_ROW_17_Left_64
*1714 PHY_EDGE_ROW_17_Right_17
*1715 PHY_EDGE_ROW_18_Left_65
*1716 PHY_EDGE_ROW_18_Right_18
*1717 PHY_EDGE_ROW_19_Left_66
*1718 PHY_EDGE_ROW_19_Right_19
*1719 PHY_EDGE_ROW_1_Left_48
*1720 PHY_EDGE_ROW_1_Right_1
*1721 PHY_EDGE_ROW_20_Left_67
*1722 PHY_EDGE_ROW_20_Right_20
*1723 PHY_EDGE_ROW_21_Left_68
*1724 PHY_EDGE_ROW_21_Right_21
*1725 PHY_EDGE_ROW_22_Left_69
*1726 PHY_EDGE_ROW_22_Right_22
*1727 PHY_EDGE_ROW_23_Left_70
*1728 PHY_EDGE_ROW_23_Right_23
*1729 PHY_EDGE_ROW_24_Left_71
*1730 PHY_EDGE_ROW_24_Right_24
*1731 PHY_EDGE_ROW_25_Left_72
*1732 PHY_EDGE_ROW_25_Right_25
*1733 PHY_EDGE_ROW_26_Left_73
*1734 PHY_EDGE_ROW_26_Right_26
*1735 PHY_EDGE_ROW_27_Left_74
*1736 PHY_EDGE_ROW_27_Right_27
*1737 PHY_EDGE_ROW_28_Left_75
*1738 PHY_EDGE_ROW_28_Right_28
*1739 PHY_EDGE_ROW_29_Left_76
*1740 PHY_EDGE_ROW_29_Right_29
*1741 PHY_EDGE_ROW_2_Left_49
*1742 PHY_EDGE_ROW_2_Right_2
*1743 PHY_EDGE_ROW_30_Left_77
*1744 PHY_EDGE_ROW_30_Right_30
*1745 PHY_EDGE_ROW_31_Left_78
*1746 PHY_EDGE_ROW_31_Right_31
*1747 PHY_EDGE_ROW_32_Left_79
*1748 PHY_EDGE_ROW_32_Right_32
*1749 PHY_EDGE_ROW_33_Left_80
*1750 PHY_EDGE_ROW_33_Right_33
*1751 PHY_EDGE_ROW_34_Left_81
*1752 PHY_EDGE_ROW_34_Right_34
*1753 PHY_EDGE_ROW_35_Left_82
*1754 PHY_EDGE_ROW_35_Right_35
*1755 PHY_EDGE_ROW_36_Left_83
*1756 PHY_EDGE_ROW_36_Right_36
*1757 PHY_EDGE_ROW_37_Left_84
*1758 PHY_EDGE_ROW_37_Right_37
*1759 PHY_EDGE_ROW_38_Left_85
*1760 PHY_EDGE_ROW_38_Right_38
*1761 PHY_EDGE_ROW_39_Left_86
*1762 PHY_EDGE_ROW_39_Right_39
*1763 PHY_EDGE_ROW_3_Left_50
*1764 PHY_EDGE_ROW_3_Right_3
*1765 PHY_EDGE_ROW_40_Left_87
*1766 PHY_EDGE_ROW_40_Right_40
*1767 PHY_EDGE_ROW_41_Left_88
*1768 PHY_EDGE_ROW_41_Right_41
*1769 PHY_EDGE_ROW_42_Left_89
*1770 PHY_EDGE_ROW_42_Right_42
*1771 PHY_EDGE_ROW_43_Left_90
*1772 PHY_EDGE_ROW_43_Right_43
*1773 PHY_EDGE_ROW_44_Left_91
*1774 PHY_EDGE_ROW_44_Right_44
*1775 PHY_EDGE_ROW_45_Left_92
*1776 PHY_EDGE_ROW_45_Right_45
*1777 PHY_EDGE_ROW_46_Left_93
*1778 PHY_EDGE_ROW_46_Right_46
*1779 PHY_EDGE_ROW_4_Left_51
*1780 PHY_EDGE_ROW_4_Right_4
*1781 PHY_EDGE_ROW_5_Left_52
*1782 PHY_EDGE_ROW_5_Right_5
*1783 PHY_EDGE_ROW_6_Left_53
*1784 PHY_EDGE_ROW_6_Right_6
*1785 PHY_EDGE_ROW_7_Left_54
*1786 PHY_EDGE_ROW_7_Right_7
*1787 PHY_EDGE_ROW_8_Left_55
*1788 PHY_EDGE_ROW_8_Right_8
*1789 PHY_EDGE_ROW_9_Left_56
*1790 PHY_EDGE_ROW_9_Right_9
*1791 TAP_TAPCELL_ROW_0_100
*1792 TAP_TAPCELL_ROW_0_101
*1793 TAP_TAPCELL_ROW_0_102
*1794 TAP_TAPCELL_ROW_0_103
*1795 TAP_TAPCELL_ROW_0_94
*1796 TAP_TAPCELL_ROW_0_95
*1797 TAP_TAPCELL_ROW_0_96
*1798 TAP_TAPCELL_ROW_0_97
*1799 TAP_TAPCELL_ROW_0_98
*1800 TAP_TAPCELL_ROW_0_99
*1801 TAP_TAPCELL_ROW_10_149
*1802 TAP_TAPCELL_ROW_10_150
*1803 TAP_TAPCELL_ROW_10_151
*1804 TAP_TAPCELL_ROW_10_152
*1805 TAP_TAPCELL_ROW_10_153
*1806 TAP_TAPCELL_ROW_11_154
*1807 TAP_TAPCELL_ROW_11_155
*1808 TAP_TAPCELL_ROW_11_156
*1809 TAP_TAPCELL_ROW_11_157
*1810 TAP_TAPCELL_ROW_11_158
*1811 TAP_TAPCELL_ROW_12_159
*1812 TAP_TAPCELL_ROW_12_160
*1813 TAP_TAPCELL_ROW_12_161
*1814 TAP_TAPCELL_ROW_12_162
*1815 TAP_TAPCELL_ROW_12_163
*1816 TAP_TAPCELL_ROW_13_164
*1817 TAP_TAPCELL_ROW_13_165
*1818 TAP_TAPCELL_ROW_13_166
*1819 TAP_TAPCELL_ROW_13_167
*1820 TAP_TAPCELL_ROW_13_168
*1821 TAP_TAPCELL_ROW_14_169
*1822 TAP_TAPCELL_ROW_14_170
*1823 TAP_TAPCELL_ROW_14_171
*1824 TAP_TAPCELL_ROW_14_172
*1825 TAP_TAPCELL_ROW_14_173
*1826 TAP_TAPCELL_ROW_15_174
*1827 TAP_TAPCELL_ROW_15_175
*1828 TAP_TAPCELL_ROW_15_176
*1829 TAP_TAPCELL_ROW_15_177
*1830 TAP_TAPCELL_ROW_15_178
*1831 TAP_TAPCELL_ROW_16_179
*1832 TAP_TAPCELL_ROW_16_180
*1833 TAP_TAPCELL_ROW_16_181
*1834 TAP_TAPCELL_ROW_16_182
*1835 TAP_TAPCELL_ROW_16_183
*1836 TAP_TAPCELL_ROW_17_184
*1837 TAP_TAPCELL_ROW_17_185
*1838 TAP_TAPCELL_ROW_17_186
*1839 TAP_TAPCELL_ROW_17_187
*1840 TAP_TAPCELL_ROW_17_188
*1841 TAP_TAPCELL_ROW_18_189
*1842 TAP_TAPCELL_ROW_18_190
*1843 TAP_TAPCELL_ROW_18_191
*1844 TAP_TAPCELL_ROW_18_192
*1845 TAP_TAPCELL_ROW_18_193
*1846 TAP_TAPCELL_ROW_19_194
*1847 TAP_TAPCELL_ROW_19_195
*1848 TAP_TAPCELL_ROW_19_196
*1849 TAP_TAPCELL_ROW_19_197
*1850 TAP_TAPCELL_ROW_19_198
*1851 TAP_TAPCELL_ROW_1_104
*1852 TAP_TAPCELL_ROW_1_105
*1853 TAP_TAPCELL_ROW_1_106
*1854 TAP_TAPCELL_ROW_1_107
*1855 TAP_TAPCELL_ROW_1_108
*1856 TAP_TAPCELL_ROW_20_199
*1857 TAP_TAPCELL_ROW_20_200
*1858 TAP_TAPCELL_ROW_20_201
*1859 TAP_TAPCELL_ROW_20_202
*1860 TAP_TAPCELL_ROW_20_203
*1861 TAP_TAPCELL_ROW_21_204
*1862 TAP_TAPCELL_ROW_21_205
*1863 TAP_TAPCELL_ROW_21_206
*1864 TAP_TAPCELL_ROW_21_207
*1865 TAP_TAPCELL_ROW_21_208
*1866 TAP_TAPCELL_ROW_22_209
*1867 TAP_TAPCELL_ROW_22_210
*1868 TAP_TAPCELL_ROW_22_211
*1869 TAP_TAPCELL_ROW_22_212
*1870 TAP_TAPCELL_ROW_22_213
*1871 TAP_TAPCELL_ROW_23_214
*1872 TAP_TAPCELL_ROW_23_215
*1873 TAP_TAPCELL_ROW_23_216
*1874 TAP_TAPCELL_ROW_23_217
*1875 TAP_TAPCELL_ROW_23_218
*1876 TAP_TAPCELL_ROW_24_219
*1877 TAP_TAPCELL_ROW_24_220
*1878 TAP_TAPCELL_ROW_24_221
*1879 TAP_TAPCELL_ROW_24_222
*1880 TAP_TAPCELL_ROW_24_223
*1881 TAP_TAPCELL_ROW_25_224
*1882 TAP_TAPCELL_ROW_25_225
*1883 TAP_TAPCELL_ROW_25_226
*1884 TAP_TAPCELL_ROW_25_227
*1885 TAP_TAPCELL_ROW_25_228
*1886 TAP_TAPCELL_ROW_26_229
*1887 TAP_TAPCELL_ROW_26_230
*1888 TAP_TAPCELL_ROW_26_231
*1889 TAP_TAPCELL_ROW_26_232
*1890 TAP_TAPCELL_ROW_26_233
*1891 TAP_TAPCELL_ROW_27_234
*1892 TAP_TAPCELL_ROW_27_235
*1893 TAP_TAPCELL_ROW_27_236
*1894 TAP_TAPCELL_ROW_27_237
*1895 TAP_TAPCELL_ROW_27_238
*1896 TAP_TAPCELL_ROW_28_239
*1897 TAP_TAPCELL_ROW_28_240
*1898 TAP_TAPCELL_ROW_28_241
*1899 TAP_TAPCELL_ROW_28_242
*1900 TAP_TAPCELL_ROW_28_243
*1901 TAP_TAPCELL_ROW_29_244
*1902 TAP_TAPCELL_ROW_29_245
*1903 TAP_TAPCELL_ROW_29_246
*1904 TAP_TAPCELL_ROW_29_247
*1905 TAP_TAPCELL_ROW_29_248
*1906 TAP_TAPCELL_ROW_2_109
*1907 TAP_TAPCELL_ROW_2_110
*1908 TAP_TAPCELL_ROW_2_111
*1909 TAP_TAPCELL_ROW_2_112
*1910 TAP_TAPCELL_ROW_2_113
*1911 TAP_TAPCELL_ROW_30_249
*1912 TAP_TAPCELL_ROW_30_250
*1913 TAP_TAPCELL_ROW_30_251
*1914 TAP_TAPCELL_ROW_30_252
*1915 TAP_TAPCELL_ROW_30_253
*1916 TAP_TAPCELL_ROW_31_254
*1917 TAP_TAPCELL_ROW_31_255
*1918 TAP_TAPCELL_ROW_31_256
*1919 TAP_TAPCELL_ROW_31_257
*1920 TAP_TAPCELL_ROW_31_258
*1921 TAP_TAPCELL_ROW_32_259
*1922 TAP_TAPCELL_ROW_32_260
*1923 TAP_TAPCELL_ROW_32_261
*1924 TAP_TAPCELL_ROW_32_262
*1925 TAP_TAPCELL_ROW_32_263
*1926 TAP_TAPCELL_ROW_33_264
*1927 TAP_TAPCELL_ROW_33_265
*1928 TAP_TAPCELL_ROW_33_266
*1929 TAP_TAPCELL_ROW_33_267
*1930 TAP_TAPCELL_ROW_33_268
*1931 TAP_TAPCELL_ROW_34_269
*1932 TAP_TAPCELL_ROW_34_270
*1933 TAP_TAPCELL_ROW_34_271
*1934 TAP_TAPCELL_ROW_34_272
*1935 TAP_TAPCELL_ROW_34_273
*1936 TAP_TAPCELL_ROW_35_274
*1937 TAP_TAPCELL_ROW_35_275
*1938 TAP_TAPCELL_ROW_35_276
*1939 TAP_TAPCELL_ROW_35_277
*1940 TAP_TAPCELL_ROW_35_278
*1941 TAP_TAPCELL_ROW_36_279
*1942 TAP_TAPCELL_ROW_36_280
*1943 TAP_TAPCELL_ROW_36_281
*1944 TAP_TAPCELL_ROW_36_282
*1945 TAP_TAPCELL_ROW_36_283
*1946 TAP_TAPCELL_ROW_37_284
*1947 TAP_TAPCELL_ROW_37_285
*1948 TAP_TAPCELL_ROW_37_286
*1949 TAP_TAPCELL_ROW_37_287
*1950 TAP_TAPCELL_ROW_37_288
*1951 TAP_TAPCELL_ROW_38_289
*1952 TAP_TAPCELL_ROW_38_290
*1953 TAP_TAPCELL_ROW_38_291
*1954 TAP_TAPCELL_ROW_38_292
*1955 TAP_TAPCELL_ROW_38_293
*1956 TAP_TAPCELL_ROW_39_294
*1957 TAP_TAPCELL_ROW_39_295
*1958 TAP_TAPCELL_ROW_39_296
*1959 TAP_TAPCELL_ROW_39_297
*1960 TAP_TAPCELL_ROW_39_298
*1961 TAP_TAPCELL_ROW_3_114
*1962 TAP_TAPCELL_ROW_3_115
*1963 TAP_TAPCELL_ROW_3_116
*1964 TAP_TAPCELL_ROW_3_117
*1965 TAP_TAPCELL_ROW_3_118
*1966 TAP_TAPCELL_ROW_40_299
*1967 TAP_TAPCELL_ROW_40_300
*1968 TAP_TAPCELL_ROW_40_301
*1969 TAP_TAPCELL_ROW_40_302
*1970 TAP_TAPCELL_ROW_40_303
*1971 TAP_TAPCELL_ROW_41_304
*1972 TAP_TAPCELL_ROW_41_305
*1973 TAP_TAPCELL_ROW_41_306
*1974 TAP_TAPCELL_ROW_41_307
*1975 TAP_TAPCELL_ROW_41_308
*1976 TAP_TAPCELL_ROW_42_309
*1977 TAP_TAPCELL_ROW_42_310
*1978 TAP_TAPCELL_ROW_42_311
*1979 TAP_TAPCELL_ROW_42_312
*1980 TAP_TAPCELL_ROW_42_313
*1981 TAP_TAPCELL_ROW_43_314
*1982 TAP_TAPCELL_ROW_43_315
*1983 TAP_TAPCELL_ROW_43_316
*1984 TAP_TAPCELL_ROW_43_317
*1985 TAP_TAPCELL_ROW_43_318
*1986 TAP_TAPCELL_ROW_44_319
*1987 TAP_TAPCELL_ROW_44_320
*1988 TAP_TAPCELL_ROW_44_321
*1989 TAP_TAPCELL_ROW_44_322
*1990 TAP_TAPCELL_ROW_44_323
*1991 TAP_TAPCELL_ROW_45_324
*1992 TAP_TAPCELL_ROW_45_325
*1993 TAP_TAPCELL_ROW_45_326
*1994 TAP_TAPCELL_ROW_45_327
*1995 TAP_TAPCELL_ROW_45_328
*1996 TAP_TAPCELL_ROW_46_329
*1997 TAP_TAPCELL_ROW_46_330
*1998 TAP_TAPCELL_ROW_46_331
*1999 TAP_TAPCELL_ROW_46_332
*2000 TAP_TAPCELL_ROW_46_333
*2001 TAP_TAPCELL_ROW_46_334
*2002 TAP_TAPCELL_ROW_46_335
*2003 TAP_TAPCELL_ROW_46_336
*2004 TAP_TAPCELL_ROW_46_337
*2005 TAP_TAPCELL_ROW_46_338
*2006 TAP_TAPCELL_ROW_4_119
*2007 TAP_TAPCELL_ROW_4_120
*2008 TAP_TAPCELL_ROW_4_121
*2009 TAP_TAPCELL_ROW_4_122
*2010 TAP_TAPCELL_ROW_4_123
*2011 TAP_TAPCELL_ROW_5_124
*2012 TAP_TAPCELL_ROW_5_125
*2013 TAP_TAPCELL_ROW_5_126
*2014 TAP_TAPCELL_ROW_5_127
*2015 TAP_TAPCELL_ROW_5_128
*2016 TAP_TAPCELL_ROW_6_129
*2017 TAP_TAPCELL_ROW_6_130
*2018 TAP_TAPCELL_ROW_6_131
*2019 TAP_TAPCELL_ROW_6_132
*2020 TAP_TAPCELL_ROW_6_133
*2021 TAP_TAPCELL_ROW_7_134
*2022 TAP_TAPCELL_ROW_7_135
*2023 TAP_TAPCELL_ROW_7_136
*2024 TAP_TAPCELL_ROW_7_137
*2025 TAP_TAPCELL_ROW_7_138
*2026 TAP_TAPCELL_ROW_8_139
*2027 TAP_TAPCELL_ROW_8_140
*2028 TAP_TAPCELL_ROW_8_141
*2029 TAP_TAPCELL_ROW_8_142
*2030 TAP_TAPCELL_ROW_8_143
*2031 TAP_TAPCELL_ROW_9_144
*2032 TAP_TAPCELL_ROW_9_145
*2033 TAP_TAPCELL_ROW_9_146
*2034 TAP_TAPCELL_ROW_9_147
*2035 TAP_TAPCELL_ROW_9_148
*2036 _124_
*2037 _125_
*2038 _126_
*2039 _127_
*2040 _128_
*2041 _129_
*2042 _130_
*2043 _131_
*2044 _132_
*2045 _133_
*2046 _134_
*2047 _135_
*2048 _136_
*2049 _137_
*2050 _138_
*2051 _139_
*2052 _140_
*2053 _141_
*2054 _142_
*2055 _143_
*2056 _144_
*2057 _145_
*2058 _146_
*2059 _147_
*2060 _148_
*2061 _149_
*2062 _150_
*2063 _151_
*2064 _152_
*2065 _153_
*2066 _154_
*2067 _155_
*2068 _156_
*2069 _157_
*2070 _158_
*2071 _159_
*2072 _160_
*2073 _161_
*2074 _162_
*2075 _163_
*2076 _164_
*2077 _165_
*2078 _166_
*2079 _167_
*2080 _168_
*2081 _169_
*2082 _170_
*2083 _171_
*2084 _172_
*2085 _173_
*2086 _174_
*2087 _175_
*2088 _176_
*2089 _177_
*2090 _178_
*2091 _179_
*2092 _180_
*2093 _181_
*2094 _182_
*2095 _183_
*2096 _184_
*2097 _185_
*2098 _186_
*2099 _187_
*2100 _188_
*2101 _189_
*2102 _190_
*2103 _191_
*2104 _192_
*2105 _193_
*2106 _194_
*2107 _195_
*2108 _196_
*2109 _197_
*2110 _198_
*2111 _199_
*2112 _200_
*2113 _201_
*2114 _202_
*2115 _203_
*2116 _204_
*2117 _205_
*2118 _206_
*2119 _207_
*2120 _208_
*2121 _209_
*2122 _210_
*2123 _211_
*2124 _212_
*2125 _213_
*2126 _214_
*2127 _215_
*2128 _216_
*2129 _217_
*2130 _218_
*2131 _219_
*2132 _220_
*2133 _221_
*2134 _222_
*2135 _223_
*2136 _224_
*2137 _225_
*2138 _226_
*2139 _227_
*2140 _228_
*2141 _229_
*2142 _230_
*2143 _231_
*2144 _232_
*2145 _233_
*2146 _234_
*2147 _235_
*2148 _236_
*2149 _237_
*2150 _238_
*2151 _239_
*2152 _240_
*2153 _241_
*2154 _242_
*2155 _243_
*2156 _244_
*2157 _245_
*2158 _246_
*2159 _247_
*2160 _248_
*2161 _249_
*2162 _250_
*2163 _251_
*2164 _252_
*2165 _253_
*2166 _254_
*2167 _255_
*2168 _256_
*2169 _257_
*2170 _258_
*2171 _259_
*2172 _260_
*2173 _261_
*2174 _262_
*2175 _263_
*2176 _264_
*2177 _265_
*2178 _266_
*2179 _267_
*2180 _268_
*2181 _269_
*2182 _270_
*2183 _271_
*2184 _272_
*2185 _273_
*2186 _274_
*2187 _275_
*2188 _276_
*2189 _277_
*2190 _278_
*2191 _279_
*2192 _280_
*2193 _281_
*2194 _282_
*2195 _283_
*2196 _284_
*2197 _285_
*2198 _286_
*2199 _287_
*2200 _288_
*2201 _289_
*2202 _290_
*2203 clkbuf_0_clk
*2204 clkbuf_0_clk_regs
*2205 clkbuf_1_0__f_clk
*2206 clkbuf_2_0__f_clk_regs
*2207 clkbuf_2_1__f_clk_regs
*2208 clkbuf_2_2__f_clk_regs
*2209 clkbuf_2_3__f_clk_regs
*2210 clkbuf_regs_0_clk
*2211 clkload0
*2212 clkload1
*2213 clkload2
*2214 hold100
*2215 hold101
*2216 hold102
*2217 hold103
*2218 hold104
*2219 hold105
*2220 hold106
*2221 hold107
*2222 hold108
*2223 hold109
*2224 hold110
*2225 hold111
*2226 hold112
*2227 hold113
*2228 hold114
*2229 hold115
*2230 hold116
*2231 hold117
*2232 hold118
*2233 hold119
*2234 hold120
*2235 hold121
*2236 hold122
*2237 hold123
*2238 hold124
*2239 hold125
*2240 hold126
*2241 hold127
*2242 hold128
*2243 hold129
*2244 hold130
*2245 hold131
*2246 hold132
*2247 hold133
*2248 hold134
*2249 hold135
*2250 hold136
*2251 hold137
*2252 hold138
*2253 hold139
*2254 hold140
*2255 hold141
*2256 hold142
*2257 hold143
*2258 hold144
*2259 hold145
*2260 hold146
*2261 hold147
*2262 hold148
*2263 hold149
*2264 hold150
*2265 hold151
*2266 hold152
*2267 hold153
*2268 hold154
*2269 hold155
*2270 hold156
*2271 hold157
*2272 hold158
*2273 hold159
*2274 hold160
*2275 hold161
*2276 hold162
*2277 hold45
*2278 hold46
*2279 hold47
*2280 hold48
*2281 hold49
*2282 hold50
*2283 hold51
*2284 hold52
*2285 hold53
*2286 hold54
*2287 hold55
*2288 hold56
*2289 hold57
*2290 hold58
*2291 hold59
*2292 hold60
*2293 hold61
*2294 hold62
*2295 hold63
*2296 hold64
*2297 hold65
*2298 hold66
*2299 hold67
*2300 hold68
*2301 hold69
*2302 hold70
*2303 hold71
*2304 hold72
*2305 hold73
*2306 hold74
*2307 hold75
*2308 hold76
*2309 hold77
*2310 hold78
*2311 hold79
*2312 hold80
*2313 hold81
*2314 hold82
*2315 hold83
*2316 hold84
*2317 hold85
*2318 hold86
*2319 hold87
*2320 hold88
*2321 hold89
*2322 hold90
*2323 hold91
*2324 hold92
*2325 hold93
*2326 hold94
*2327 hold95
*2328 hold96
*2329 hold97
*2330 hold98
*2331 hold99
*2332 input1
*2333 input2
*2334 input3
*2335 input4
*2336 input5
*2337 max_cap39
*2338 max_cap40
*2339 max_cap41
*2340 max_cap42
*2341 max_cap43
*2342 max_cap44
*2343 output10
*2344 output11
*2345 output12
*2346 output13
*2347 output14
*2348 output15
*2349 output16
*2350 output17
*2351 output18
*2352 output19
*2353 output20
*2354 output21
*2355 output22
*2356 output23
*2357 output24
*2358 output25
*2359 output26
*2360 output27
*2361 output28
*2362 output29
*2363 output30
*2364 output31
*2365 output32
*2366 output33
*2367 output34
*2368 output35
*2369 output36
*2370 output37
*2371 output38
*2372 output6
*2373 output7
*2374 output8
*2375 output9

*PORTS
busy O
clk I
comparator_bit I
comparator_evaluate O
data[0] O
data[10] O
data[11] O
data[1] O
data[2] O
data[3] O
data[4] O
data[5] O
data[6] O
data[7] O
data[8] O
data[9] O
data_gain[0] O
data_gain[1] O
data_valid O
gain_latched[0] O
gain_latched[1] O
gain_sel[0] I
gain_sel[1] I
ready O
rst_n I
sample_en O
start I
trial_code[0] O
trial_code[10] O
trial_code[11] O
trial_code[1] O
trial_code[2] O
trial_code[3] O
trial_code[4] O
trial_code[5] O
trial_code[6] O
trial_code[7] O
trial_code[8] O
trial_code[9] O

*D_NET *3 0.00101978
*CONN
*P busy O
*I *2372:X O *D sky130_fd_sc_hd__buf_2
*CAP
1 busy 6.2483e-05
2 *2372:X 0.000353214
3 *3:10 0.000415697
4 busy ready 0.000107978
5 *3:10 *26:10 8.04127e-05
*RES
1 *2372:X *3:10 44.1832 
2 *3:10 busy 8.3584 
*END

*D_NET *4 0.0189124
*CONN
*P clk I
*I *2203:A I *D sky130_fd_sc_hd__clkbuf_16
*I *2210:A I *D sky130_fd_sc_hd__clkbuf_16
*CAP
1 clk 0.00529837
2 *2203:A 0
3 *2210:A 0
4 *4:34 0.00106828
5 *4:25 0.00115441
6 *4:18 0.000156242
7 *4:10 0.00173585
8 *4:8 0.00696412
9 *4:8 *124:86 0
10 *4:10 *99:14 6.48134e-05
11 *4:10 *99:27 0.00031493
12 *4:10 *140:43 0
13 *4:10 *146:10 0.000170665
14 *4:10 *175:11 0.000118848
15 *4:10 *175:47 0.000780222
16 *4:10 *220:10 0.000191008
17 *4:10 *270:10 0
18 *4:18 *2243:A 1.09903e-05
19 *4:18 *213:20 3.39586e-05
20 *4:25 *213:20 8.44257e-05
21 *4:34 *2051:B 2.7636e-05
22 *4:34 *2055:A 0
23 *4:34 *2198:RESET_B 0
24 *4:34 *84:8 8.55177e-05
25 *4:34 *175:11 0.000404833
26 *4:34 *213:20 3.32932e-05
27 *4:34 *219:85 0.000213974
28 *4:34 *282:353 0
29 *4:34 *282:355 0
30 *4:34 *282:365 0
31 *4:34 *344:21 0
*RES
1 clk *4:8 22.2688 
2 *4:8 *4:10 36.5918 
3 *4:10 *4:18 16.5588 
4 *4:18 *2210:A 23 
5 *4:18 *4:25 1.90054 
6 *4:25 *4:34 37.8893 
7 *4:34 *2203:A 38 
*END

*D_NET *5 0.00159329
*CONN
*P comparator_bit I
*I *2332:A I *D sky130_fd_sc_hd__buf_2
*CAP
1 comparator_bit 0.000711123
2 *2332:A 0
3 *5:9 0.000711123
4 *5:9 trial_code[2] 0
5 *5:9 *181:8 1.84917e-05
6 *5:9 *204:14 9.70579e-05
7 *5:9 *268:8 5.54905e-05
*RES
1 comparator_bit *5:9 31.2814 
2 *5:9 *2332:A 23 
*END

*D_NET *6 0.00133324
*CONN
*P comparator_evaluate O
*I *2373:X O *D sky130_fd_sc_hd__buf_2
*CAP
1 comparator_evaluate 0.000540925
2 *2373:X 0.000125693
3 *6:8 0.000666618
*RES
1 *2373:X *6:8 39.5743 
2 *6:8 comparator_evaluate 11.7243 
*END

*D_NET *7 0.000826256
*CONN
*P data[0] O
*I *2374:X O *D sky130_fd_sc_hd__buf_2
*CAP
1 data[0] 0.000307469
2 *2374:X 0.000307469
3 data[0] trial_code[0] 0.000211318
4 data[0] trial_code[7] 0
*RES
1 *2374:X data[0] 47.7173 
*END

*D_NET *8 0.00123223
*CONN
*P data[10] O
*I *2375:X O *D sky130_fd_sc_hd__buf_2
*CAP
1 data[10] 0.000134562
2 *2375:X 0.000333204
3 *8:10 0.000467766
4 data[10] trial_code[10] 0.000208068
5 *8:10 *31:10 8.86273e-05
6 *8:10 *332:12 0
*RES
1 *2375:X *8:10 43.6861 
2 *8:10 data[10] 8.70187 
*END

*D_NET *9 0.00121586
*CONN
*P data[11] O
*I *2343:X O *D sky130_fd_sc_hd__buf_2
*CAP
1 data[11] 0.000553942
2 *2343:X 0.000553942
3 data[11] trial_code[11] 0.000107978
*RES
1 *2343:X data[11] 49.4619 
*END

*D_NET *10 0.000918003
*CONN
*P data[1] O
*I *2344:X O *D sky130_fd_sc_hd__buf_2
*CAP
1 data[1] 0.000459002
2 *2344:X 0.000459002
*RES
1 *2344:X data[1] 49.1259 
*END

*D_NET *11 0.00144953
*CONN
*P data[2] O
*I *2345:X O *D sky130_fd_sc_hd__buf_2
*CAP
1 data[2] 0.000398833
2 *2345:X 7.04945e-05
3 *11:8 0.000469328
4 data[2] trial_code[2] 0.00051087
*RES
1 *2345:X *11:8 39.0979 
2 *11:8 data[2] 12.4907 
*END

*D_NET *12 0.0012758
*CONN
*P data[3] O
*I *2346:X O *D sky130_fd_sc_hd__buf_2
*CAP
1 data[3] 0.000571261
2 *2346:X 6.66418e-05
3 *12:8 0.000637902
4 data[3] trial_code[3] 0
*RES
1 *2346:X *12:8 39.0979 
2 *12:8 data[3] 12.4907 
*END

*D_NET *13 0.000955781
*CONN
*P data[4] O
*I *2347:X O *D sky130_fd_sc_hd__buf_2
*CAP
1 data[4] 0.000477891
2 *2347:X 0.000477891
3 data[4] trial_code[10] 0
*RES
1 *2347:X data[4] 49.1184 
*END

*D_NET *14 0.00115602
*CONN
*P data[5] O
*I *2348:X O *D sky130_fd_sc_hd__buf_2
*CAP
1 data[5] 0.000344289
2 *2348:X 0.000344289
3 data[5] trial_code[5] 0.000404451
4 data[5] *271:12 6.29881e-05
*RES
1 *2348:X data[5] 49.1259 
*END

*D_NET *15 0.00114506
*CONN
*P data[6] O
*I *2349:X O *D sky130_fd_sc_hd__buf_2
*CAP
1 data[6] 0.000337894
2 *2349:X 0.000337894
3 data[6] trial_code[5] 0
4 data[6] trial_code[6] 0.000403799
5 data[6] *272:25 6.54744e-05
*RES
1 *2349:X data[6] 49.1259 
*END

*D_NET *16 0.000970814
*CONN
*P data[7] O
*I *2350:X O *D sky130_fd_sc_hd__buf_2
*CAP
1 data[7] 0.000372794
2 *2350:X 0.000372794
3 data[7] data_valid 0
4 data[7] trial_code[7] 0.000225225
*RES
1 *2350:X data[7] 49.1259 
*END

*D_NET *17 0.00155335
*CONN
*P data[8] O
*I *2351:X O *D sky130_fd_sc_hd__buf_2
*CAP
1 data[8] 0.000226406
2 *2351:X 3.9401e-05
3 *17:8 0.000265807
4 data[8] trial_code[4] 0.00051087
5 data[8] trial_code[8] 0.00051087
*RES
1 *2351:X *17:8 38.6214 
2 *17:8 data[8] 12.4907 
*END

*D_NET *18 0.0012758
*CONN
*P data[9] O
*I *2352:X O *D sky130_fd_sc_hd__buf_2
*CAP
1 data[9] 0.000571261
2 *2352:X 6.66418e-05
3 *18:8 0.000637902
4 data[9] trial_code[9] 0
*RES
1 *2352:X *18:8 39.0979 
2 *18:8 data[9] 12.4907 
*END

*D_NET *19 0.000923075
*CONN
*P data_gain[0] O
*I *2353:X O *D sky130_fd_sc_hd__buf_2
*CAP
1 data_gain[0] 0.000461537
2 *2353:X 0.000461537
3 data_gain[0] data_valid 0
*RES
1 *2353:X data_gain[0] 49.1259 
*END

*D_NET *20 0.00179786
*CONN
*P data_gain[1] O
*I *2354:X O *D sky130_fd_sc_hd__buf_2
*CAP
1 data_gain[1] 0.00051117
2 *2354:X 8.83374e-05
3 *20:8 0.000599507
4 data_gain[1] gain_latched[0] 0
5 data_gain[1] gain_latched[1] 0
6 data_gain[1] *24:11 0.000496572
7 data_gain[1] *260:14 8.07507e-05
8 data_gain[1] *266:14 0
9 *20:8 *255:12 2.15233e-05
*RES
1 *2354:X *20:8 39.0979 
2 *20:8 data_gain[1] 14.5414 
*END

*D_NET *21 0.00092816
*CONN
*P data_valid O
*I *2355:X O *D sky130_fd_sc_hd__buf_2
*CAP
1 data_valid 0.00046408
2 *2355:X 0.00046408
3 data[7] data_valid 0
4 data_gain[0] data_valid 0
*RES
1 *2355:X data_valid 49.1259 
*END

*D_NET *22 0.00136551
*CONN
*P gain_latched[0] O
*I *2356:X O *D sky130_fd_sc_hd__buf_2
*CAP
1 gain_latched[0] 0.000592637
2 *2356:X 9.01176e-05
3 *22:8 0.000682754
4 data_gain[1] gain_latched[0] 0
*RES
1 *2356:X *22:8 39.0979 
2 *22:8 gain_latched[0] 13.6714 
*END

*D_NET *23 0.00185494
*CONN
*P gain_latched[1] O
*I *2357:X O *D sky130_fd_sc_hd__buf_2
*CAP
1 gain_latched[1] 0.000264328
2 *2357:X 0.000113657
3 *23:8 0.000377985
4 gain_latched[1] *24:11 0.000499048
5 gain_latched[1] *25:9 0.000511329
6 *23:8 *24:11 3.3577e-05
7 *23:8 *266:14 5.50106e-05
8 data_gain[1] gain_latched[1] 0
*RES
1 *2357:X *23:8 40.0507 
2 *23:8 gain_latched[1] 13.1329 
*END

*D_NET *24 0.00181569
*CONN
*P gain_sel[0] I
*I *2333:A I *D sky130_fd_sc_hd__buf_2
*CAP
1 gain_sel[0] 0.000393248
2 *2333:A 0
3 *24:11 0.000393248
4 data_gain[1] *24:11 0.000496572
5 gain_latched[1] *24:11 0.000499048
6 *23:8 *24:11 3.3577e-05
*RES
1 gain_sel[0] *24:11 30.1007 
2 *24:11 *2333:A 23 
*END

*D_NET *25 0.00139549
*CONN
*P gain_sel[1] I
*I *2334:A I *D sky130_fd_sc_hd__buf_2
*CAP
1 gain_sel[1] 0.00043111
2 *2334:A 0
3 *25:9 0.00043111
4 *25:9 *29:9 0
5 *25:9 *266:14 2.19434e-05
6 gain_latched[1] *25:9 0.000511329
*RES
1 gain_sel[1] *25:9 28.05 
2 *25:9 *2334:A 23 
*END

*D_NET *26 0.00152542
*CONN
*P ready O
*I *2358:X O *D sky130_fd_sc_hd__buf_2
*CAP
1 ready 0.000223652
2 *2358:X 0.000394462
3 *26:10 0.000618114
4 *26:10 *2372:A 0.000100805
5 busy ready 0.000107978
6 *3:10 *26:10 8.04127e-05
*RES
1 *2358:X *26:10 46.0475 
2 *26:10 ready 8.8736 
*END

*D_NET *27 0.00168288
*CONN
*P rst_n I
*I *2335:A I *D sky130_fd_sc_hd__buf_2
*CAP
1 rst_n 0.000513853
2 *2335:A 0
3 *27:9 0.000513853
4 *27:9 trial_code[1] 0.000538825
5 *27:9 *33:8 2.87265e-05
6 *27:9 *267:27 8.76184e-05
*RES
1 rst_n *27:9 29.7693 
2 *27:9 *2335:A 23 
*END

*D_NET *28 0.00126209
*CONN
*P sample_en O
*I *2359:X O *D sky130_fd_sc_hd__buf_2
*CAP
1 sample_en 0.000540925
2 *2359:X 9.01176e-05
3 *28:8 0.000631043
*RES
1 *2359:X *28:8 39.0979 
2 *28:8 sample_en 11.7243 
*END

*D_NET *29 0.00123154
*CONN
*P start I
*I *2336:A I *D sky130_fd_sc_hd__buf_2
*CAP
1 start 0.000606027
2 *2336:A 0
3 *29:9 0.000606027
4 *29:9 *288:10 1.94812e-05
5 *25:9 *29:9 0
*RES
1 start *29:9 28.05 
2 *29:9 *2336:A 23 
*END

*D_NET *30 0.000848573
*CONN
*P trial_code[0] O
*I *2360:X O *D sky130_fd_sc_hd__buf_2
*CAP
1 trial_code[0] 0.000318627
2 *2360:X 0.000318627
3 data[0] trial_code[0] 0.000211318
*RES
1 *2360:X trial_code[0] 47.7173 
*END

*D_NET *31 0.00140252
*CONN
*P trial_code[10] O
*I *2361:X O *D sky130_fd_sc_hd__buf_2
*CAP
1 trial_code[10] 0.000198767
2 *2361:X 0.000354145
3 *31:10 0.000552912
4 *31:10 *332:12 0
5 data[10] trial_code[10] 0.000208068
6 data[4] trial_code[10] 0
7 *8:10 *31:10 8.86273e-05
*RES
1 *2361:X *31:10 44.6389 
2 *31:10 trial_code[10] 8.8736 
*END

*D_NET *32 0.00098644
*CONN
*P trial_code[11] O
*I *2362:X O *D sky130_fd_sc_hd__buf_2
*CAP
1 trial_code[11] 6.8468e-05
2 *2362:X 0.000370763
3 *32:10 0.000439231
4 data[11] trial_code[11] 0.000107978
*RES
1 *2362:X *32:10 44.1832 
2 *32:10 trial_code[11] 8.3584 
*END

*D_NET *33 0.00174721
*CONN
*P trial_code[1] O
*I *2363:X O *D sky130_fd_sc_hd__buf_2
*CAP
1 trial_code[1] 0.000453759
2 *2363:X 0.000121909
3 *33:8 0.000575668
4 trial_code[1] *267:27 1.35853e-05
5 *33:8 *267:27 1.47394e-05
6 *27:9 trial_code[1] 0.000538825
7 *27:9 *33:8 2.87265e-05
*RES
1 *2363:X *33:8 39.5743 
2 *33:8 trial_code[1] 13.8993 
*END

*D_NET *34 0.00158372
*CONN
*P trial_code[2] O
*I *2364:X O *D sky130_fd_sc_hd__buf_2
*CAP
1 trial_code[2] 0.000398833
2 *2364:X 0.000137592
3 *34:10 0.000536425
4 data[2] trial_code[2] 0.00051087
5 *5:9 trial_code[2] 0
*RES
1 *2364:X *34:10 40.1957 
2 *34:10 trial_code[2] 12.4907 
*END

*D_NET *35 0.00128643
*CONN
*P trial_code[3] O
*I *2365:X O *D sky130_fd_sc_hd__buf_2
*CAP
1 trial_code[3] 0.000571261
2 *2365:X 7.1955e-05
3 *35:8 0.000643215
4 data[3] trial_code[3] 0
*RES
1 *2365:X *35:8 39.0979 
2 *35:8 trial_code[3] 12.4907 
*END

*D_NET *36 0.00140266
*CONN
*P trial_code[4] O
*I *2366:X O *D sky130_fd_sc_hd__buf_2
*CAP
1 trial_code[4] 0.000398833
2 *2366:X 3.07493e-05
3 *36:8 0.000429583
4 *36:8 *253:25 3.26241e-05
5 data[8] trial_code[4] 0.00051087
*RES
1 *2366:X *36:8 38.6214 
2 *36:8 trial_code[4] 12.4907 
*END

*D_NET *37 0.000961347
*CONN
*P trial_code[5] O
*I *2367:X O *D sky130_fd_sc_hd__buf_2
*CAP
1 trial_code[5] 0.000278448
2 *2367:X 0.000278448
3 data[5] trial_code[5] 0.000404451
4 data[6] trial_code[5] 0
*RES
1 *2367:X trial_code[5] 47.7173 
*END

*D_NET *38 0.000998915
*CONN
*P trial_code[6] O
*I *2368:X O *D sky130_fd_sc_hd__buf_2
*CAP
1 trial_code[6] 0.000297558
2 *2368:X 0.000297558
3 data[6] trial_code[6] 0.000403799
*RES
1 *2368:X trial_code[6] 47.7173 
*END

*D_NET *39 0.000970814
*CONN
*P trial_code[7] O
*I *2369:X O *D sky130_fd_sc_hd__buf_2
*CAP
1 trial_code[7] 0.000372794
2 *2369:X 0.000372794
3 data[0] trial_code[7] 0
4 data[7] trial_code[7] 0.000225225
*RES
1 *2369:X trial_code[7] 49.1259 
*END

*D_NET *40 0.00151267
*CONN
*P trial_code[8] O
*I *2370:X O *D sky130_fd_sc_hd__buf_2
*CAP
1 trial_code[8] 0.000398833
2 *2370:X 0.000102066
3 *40:8 0.000500899
4 data[8] trial_code[8] 0.00051087
*RES
1 *2370:X *40:8 39.5743 
2 *40:8 trial_code[8] 12.4907 
*END

*D_NET *41 0.0012758
*CONN
*P trial_code[9] O
*I *2371:X O *D sky130_fd_sc_hd__buf_2
*CAP
1 trial_code[9] 0.000571261
2 *2371:X 6.66418e-05
3 *41:8 0.000637902
4 data[9] trial_code[9] 0
*RES
1 *2371:X *41:8 39.0979 
2 *41:8 trial_code[9] 12.4907 
*END

*D_NET *42 0.0233026
*CONN
*I *2093:B I *D sky130_fd_sc_hd__nor2_1
*I *2096:A1 I *D sky130_fd_sc_hd__a21oi_1
*I *2099:B I *D sky130_fd_sc_hd__nor2_1
*I *2100:A1 I *D sky130_fd_sc_hd__a21oi_1
*I *2081:B I *D sky130_fd_sc_hd__nor2_1
*I *2141:C I *D sky130_fd_sc_hd__nor3_1
*I *2140:B I *D sky130_fd_sc_hd__nor3_1
*I *2043:B I *D sky130_fd_sc_hd__nor2_1
*I *2044:A2 I *D sky130_fd_sc_hd__o21ai_0
*I *2108:A1 I *D sky130_fd_sc_hd__a21oi_1
*I *2082:A1 I *D sky130_fd_sc_hd__a21oi_1
*I *2103:B I *D sky130_fd_sc_hd__nor2_1
*I *2104:A1 I *D sky130_fd_sc_hd__a21oi_1
*I *2107:B I *D sky130_fd_sc_hd__nor2_1
*I *2057:A2 I *D sky130_fd_sc_hd__o2111ai_1
*I *2258:A I *D sky130_fd_sc_hd__dlygate4sd3_1
*I *2042:Y O *D sky130_fd_sc_hd__nor2_2
*CAP
1 *2093:B 0.000328552
2 *2096:A1 0.000168897
3 *2099:B 2.34823e-05
4 *2100:A1 0
5 *2081:B 0
6 *2141:C 0.000161037
7 *2140:B 0
8 *2043:B 0
9 *2044:A2 0
10 *2108:A1 0
11 *2082:A1 0.000812195
12 *2103:B 0.000108085
13 *2104:A1 0
14 *2107:B 0.000279814
15 *2057:A2 6.84681e-05
16 *2258:A 4.24211e-05
17 *2042:Y 0.000305988
18 *42:215 0.00108484
19 *42:204 0.00111564
20 *42:191 0.000982645
21 *42:178 0.000875115
22 *42:101 0.000370164
23 *42:97 0.000946173
24 *42:82 0.000548942
25 *42:80 0.000259392
26 *42:78 0.00118242
27 *42:70 0.00164015
28 *42:45 0.000968562
29 *42:39 0.000399992
30 *42:31 0.000231647
31 *42:27 0.0013174
32 *42:10 0.00149014
33 *2057:A2 *85:8 6.6869e-05
34 *2057:A2 *210:24 0.000136486
35 *2082:A1 *2082:A2 5.67058e-05
36 *2082:A1 *58:10 0.000141879
37 *2082:A1 *282:176 8.15327e-05
38 *2082:A1 *332:28 0.000254907
39 *2093:B *274:10 0
40 *2093:B *275:23 7.38527e-05
41 *2096:A1 *274:10 0
42 *2096:A1 *275:23 8.83237e-05
43 *2096:A1 *291:10 0.000162137
44 *2096:A1 *292:10 0.000114083
45 *2103:B *118:16 5.79559e-05
46 *2103:B *119:6 4.93812e-05
47 *2107:B *2107:A 5.58003e-05
48 *2107:B *59:12 0
49 *2107:B *121:12 0.000140135
50 *2107:B *122:10 4.21362e-05
51 *2107:B *182:21 2.35118e-06
52 *2141:C *2043:A 7.46108e-05
53 *2141:C *2138:A1 0
54 *2141:C *2141:B 0.000127263
55 *2141:C *219:16 9.5877e-05
56 *2141:C *279:10 0.00019109
57 *42:10 *222:136 0.000180224
58 *42:10 *230:8 0.000341562
59 *42:10 *279:73 3.53348e-05
60 *42:10 *280:14 0.00021673
61 *42:27 *159:22 0.0004607
62 *42:27 *161:31 0.000110637
63 *42:27 *213:47 1.38508e-05
64 *42:27 *279:14 0.000368313
65 *42:27 *279:41 6.35063e-05
66 *42:31 *2043:A 2.05503e-05
67 *42:31 *279:10 2.24608e-05
68 *42:39 *2138:A2 0.000194318
69 *42:39 *2140:A 0.000219383
70 *42:39 *219:26 0.000192087
71 *42:45 *2138:A2 1.22803e-05
72 *42:45 *2240:A 5.3304e-05
73 *42:45 *85:8 9.28842e-05
74 *42:45 *85:12 5.50106e-05
75 *42:45 *210:24 7.39034e-05
76 *42:45 *210:50 0.000141879
77 *42:70 *2044:A1 5.50049e-05
78 *42:70 *2053:B1 0.000104958
79 *42:70 *2241:A 0.000118317
80 *42:70 *81:43 3.06213e-05
81 *42:70 *81:49 6.8789e-05
82 *42:70 *210:20 7.55718e-05
83 *42:70 *211:31 0.000126114
84 *42:70 *212:10 7.15126e-05
85 *42:78 *2111:A2 0
86 *42:78 *2201:RESET_B 1.01436e-05
87 *42:78 *45:8 5.61414e-05
88 *42:78 *59:12 0.00013499
89 *42:78 *81:49 0
90 *42:78 *179:32 0.000349696
91 *42:78 *265:8 0
92 *42:80 *2108:B1 5.67058e-05
93 *42:80 *59:12 7.1349e-05
94 *42:97 *2179:RESET_B 1.37246e-05
95 *42:97 *59:12 0
96 *42:97 *121:12 5.55911e-05
97 *42:97 *179:32 0
98 *42:97 *282:202 0
99 *42:97 *314:10 0
100 *42:97 *332:28 8.4047e-05
101 *42:101 *2104:B1 5.67058e-05
102 *42:101 *2193:RESET_B 9.41704e-05
103 *42:101 *118:16 0.000107064
104 *42:178 *2082:A2 5.67058e-05
105 *42:178 *103:8 0.00014411
106 *42:178 *179:70 0
107 *42:178 *179:74 0
108 *42:178 *282:176 0
109 *42:178 *324:8 3.70085e-05
110 *42:178 *325:10 0.000382583
111 *42:191 *124:110 0
112 *42:191 *324:8 1.0092e-05
113 *42:204 *57:10 0
114 *42:204 *116:10 7.53384e-06
115 *42:204 *254:10 0.000167443
116 *42:204 *254:23 0
117 *42:204 *295:10 0
118 *42:215 *116:10 0.000161441
*RES
1 *2042:Y *42:10 44.7736 
2 *42:10 *2258:A 38.6214 
3 *42:10 *42:27 19.1472 
4 *42:27 *42:31 15.3211 
5 *42:31 *42:39 35.1371 
6 *42:39 *42:45 19.5364 
7 *42:45 *2057:A2 39.9057 
8 *42:45 *42:70 28.8579 
9 *42:70 *42:78 49.7821 
10 *42:78 *42:80 3.48 
11 *42:80 *42:82 15 
12 *42:82 *2107:B 43.7586 
13 *42:82 *42:97 5.77929 
14 *42:97 *42:101 18.9564 
15 *42:101 *2104:A1 23 
16 *42:101 *2103:B 25.5686 
17 *42:97 *2082:A1 46.3064 
18 *42:80 *2108:A1 23 
19 *42:70 *2044:A2 23 
20 *42:39 *2043:B 23 
21 *42:31 *2140:B 23 
22 *42:27 *2141:C 42.3811 
23 *2082:A1 *42:178 48.9579 
24 *42:178 *2081:B 38 
25 *42:178 *42:191 8.65857 
26 *42:191 *2100:A1 38 
27 *42:191 *42:204 25.0464 
28 *42:204 *2099:B 23.4971 
29 *42:204 *42:215 26.1029 
30 *42:215 *2096:A1 43.075 
31 *42:215 *2093:B 44.4421 
*END

*D_NET *43 0.000240811
*CONN
*I *2241:A I *D sky130_fd_sc_hd__dlygate4sd3_1
*I *2053:Y O *D sky130_fd_sc_hd__a21oi_1
*CAP
1 *2241:A 3.27258e-05
2 *2053:Y 3.27258e-05
3 *2241:A *2053:B1 5.70419e-05
4 *42:70 *2241:A 0.000118317
*RES
1 *2053:Y *2241:A 47.595 
*END

*D_NET *44 0.000536132
*CONN
*I *2238:A I *D sky130_fd_sc_hd__dlygate4sd3_1
*I *2052:Y O *D sky130_fd_sc_hd__nand2_1
*CAP
1 *2238:A 8.7665e-05
2 *2052:Y 0.000103553
3 *44:8 0.000191218
4 *2238:A *203:23 9.91024e-05
5 *2238:A *209:10 3.22051e-05
6 *44:8 *2158:B 0
7 *44:8 *164:10 0
8 *44:8 *209:10 2.23884e-05
*RES
1 *2052:Y *44:8 39.9057 
2 *44:8 *2238:A 40.0507 
*END

*D_NET *45 0.00064179
*CONN
*I *2255:A I *D sky130_fd_sc_hd__dlygate4sd3_1
*I *2049:X O *D sky130_fd_sc_hd__a21o_1
*CAP
1 *2255:A 2.70317e-05
2 *2049:X 0.00022546
3 *45:8 0.000252492
4 *2255:A *261:19 3.22879e-05
5 *45:8 *2201:RESET_B 0
6 *45:8 *261:25 0
7 *45:8 *299:8 4.83778e-05
8 *42:78 *45:8 5.61414e-05
*RES
1 *2049:X *45:8 42.7229 
2 *45:8 *2255:A 38.6214 
*END

*D_NET *46 0.000632961
*CONN
*I *2218:A I *D sky130_fd_sc_hd__dlygate4sd3_1
*I *2058:X O *D sky130_fd_sc_hd__mux2_1
*CAP
1 *2218:A 0
2 *2058:X 0.000153281
3 *46:8 0.000153281
4 *46:8 *2058:A1 0.000326398
*RES
1 *2058:X *46:8 27.3293 
2 *46:8 *2218:A 23 
*END

*D_NET *47 0.000312321
*CONN
*I *2328:A I *D sky130_fd_sc_hd__dlygate4sd3_1
*I *2059:X O *D sky130_fd_sc_hd__mux2_1
*CAP
1 *2328:A 4.24511e-05
2 *2059:X 9.07631e-05
3 *47:8 0.000133214
4 *47:8 *81:8 4.58924e-05
*RES
1 *2059:X *47:8 39.9057 
2 *47:8 *2328:A 38.6214 
*END

*D_NET *48 0.000516297
*CONN
*I *2311:A I *D sky130_fd_sc_hd__dlygate4sd3_1
*I *2062:Y O *D sky130_fd_sc_hd__a21oi_1
*CAP
1 *2311:A 0.000201068
2 *2062:Y 0.000201068
3 *2311:A *2062:B1 0.000114161
*RES
1 *2062:Y *2311:A 49.9771 
*END

*D_NET *49 0.00193593
*CONN
*I *2293:A I *D sky130_fd_sc_hd__dlygate4sd3_1
*I *2067:Y O *D sky130_fd_sc_hd__a21oi_1
*CAP
1 *2293:A 0.000316165
2 *2067:Y 0.000354418
3 *49:8 0.000670583
4 *2293:A *2174:RESET_B 0
5 *2293:A *281:153 2.67733e-05
6 *49:8 *2066:A 6.17437e-06
7 *49:8 *2292:A 9.82009e-05
8 *49:8 *281:159 0.000463619
*RES
1 *2067:Y *49:8 45.7679 
2 *49:8 *2293:A 44.1314 
*END

*D_NET *50 0.000478643
*CONN
*I *2282:A I *D sky130_fd_sc_hd__dlygate4sd3_1
*I *2072:Y O *D sky130_fd_sc_hd__a21oi_1
*CAP
1 *2282:A 0.000192496
2 *2072:Y 0.000192496
3 *2282:A *2072:B1 9.36522e-05
*RES
1 *2072:Y *2282:A 49.9771 
*END

*D_NET *51 0.000402466
*CONN
*I *2279:A I *D sky130_fd_sc_hd__dlygate4sd3_1
*I *2077:Y O *D sky130_fd_sc_hd__a21oi_1
*CAP
1 *2279:A 0
2 *2077:Y 0.000120056
3 *51:10 0.000120056
4 *51:10 *2077:B1 2.10502e-05
5 *51:10 *284:8 0.000141303
*RES
1 *2077:Y *51:10 40.5271 
2 *51:10 *2279:A 38 
*END

*D_NET *52 0.000132753
*CONN
*I *2316:A I *D sky130_fd_sc_hd__dlygate4sd3_1
*I *2082:Y O *D sky130_fd_sc_hd__a21oi_1
*CAP
1 *2316:A 5.48617e-05
2 *2082:Y 5.48617e-05
3 *2316:A *2082:A2 2.30292e-05
*RES
1 *2082:Y *2316:A 47.1186 
*END

*D_NET *53 0.00244238
*CONN
*I *2302:A I *D sky130_fd_sc_hd__dlygate4sd3_1
*I *2085:Y O *D sky130_fd_sc_hd__a21oi_1
*CAP
1 *2302:A 0.000363444
2 *2085:Y 0.000325476
3 *53:8 0.00068892
4 *2302:A *250:8 0
5 *2302:A *271:28 0.000139865
6 *2302:A *281:127 0.000118174
7 *2302:A *281:153 0.000555284
8 *53:8 *2085:A1 3.06911e-05
9 *53:8 *196:6 5.79559e-05
10 *53:8 *309:6 0.000162572
*RES
1 *2085:Y *53:8 44.815 
2 *53:8 *2302:A 47.57 
*END

*D_NET *54 0.000726273
*CONN
*I *2308:A I *D sky130_fd_sc_hd__dlygate4sd3_1
*I *2088:Y O *D sky130_fd_sc_hd__a21oi_1
*CAP
1 *2308:A 0
2 *2088:Y 0.000290604
3 *54:8 0.000290604
4 *54:8 *272:19 0.000145065
*RES
1 *2088:Y *54:8 28.8829 
2 *54:8 *2308:A 23 
*END

*D_NET *55 0.000441322
*CONN
*I *2299:A I *D sky130_fd_sc_hd__dlygate4sd3_1
*I *2092:Y O *D sky130_fd_sc_hd__a21oi_1
*CAP
1 *2299:A 6.32082e-05
2 *2092:Y 8.14371e-05
3 *55:8 0.000144645
4 *55:8 *2202:CLK 1.01436e-05
5 *55:8 *178:104 0.000141888
6 *55:8 *281:29 0
*RES
1 *2092:Y *55:8 39.9057 
2 *55:8 *2299:A 39.0979 
*END

*D_NET *56 0.000548258
*CONN
*I *2285:A I *D sky130_fd_sc_hd__dlygate4sd3_1
*I *2096:Y O *D sky130_fd_sc_hd__a21oi_1
*CAP
1 *2285:A 0.00021522
2 *2096:Y 0.00021522
3 *2285:A *2178:RESET_B 0.000100477
4 *2285:A *292:10 1.73399e-05
*RES
1 *2096:Y *2285:A 49.9771 
*END

*D_NET *57 0.000869153
*CONN
*I *2290:A I *D sky130_fd_sc_hd__dlygate4sd3_1
*I *2100:Y O *D sky130_fd_sc_hd__a21oi_1
*CAP
1 *2290:A 0
2 *2100:Y 0.000333464
3 *57:10 0.000333464
4 *57:10 *2100:A2 6.94657e-05
5 *57:10 *116:10 7.71291e-05
6 *57:10 *297:10 5.56306e-05
7 *42:204 *57:10 0
*RES
1 *2100:Y *57:10 44.7736 
2 *57:10 *2290:A 38 
*END

*D_NET *58 0.00107685
*CONN
*I *2305:A I *D sky130_fd_sc_hd__dlygate4sd3_1
*I *2104:Y O *D sky130_fd_sc_hd__a21oi_1
*CAP
1 *2305:A 0
2 *2104:Y 0.000312617
3 *58:10 0.000312617
4 *58:10 *118:16 0
5 *58:10 *242:8 0
6 *58:10 *264:26 0.000309734
7 *2082:A1 *58:10 0.000141879
*RES
1 *2104:Y *58:10 43.3857 
2 *58:10 *2305:A 38 
*END

*D_NET *59 0.000786051
*CONN
*I *2296:A I *D sky130_fd_sc_hd__dlygate4sd3_1
*I *2108:Y O *D sky130_fd_sc_hd__a21oi_1
*CAP
1 *2296:A 0
2 *2108:Y 0.000248495
3 *59:12 0.000248495
4 *59:12 *2108:B1 5.67058e-05
5 *59:12 *179:32 2.60152e-05
6 *2107:B *59:12 0
7 *42:78 *59:12 0.00013499
8 *42:80 *59:12 7.1349e-05
9 *42:97 *59:12 0
*RES
1 *2108:Y *59:12 43.51 
2 *59:12 *2296:A 38 
*END

*D_NET *60 0.00144325
*CONN
*I *2262:A I *D sky130_fd_sc_hd__dlygate4sd3_1
*I *2109:X O *D sky130_fd_sc_hd__mux2_1
*CAP
1 *2262:A 0.000205611
2 *2109:X 0.000388957
3 *60:8 0.000594568
4 *60:8 *235:8 0.000143845
5 *60:8 *281:37 0
6 *60:8 *323:8 0.000110267
*RES
1 *2109:X *60:8 45.54 
2 *60:8 *2262:A 41.48 
*END

*D_NET *61 0.000131565
*CONN
*I *2260:A I *D sky130_fd_sc_hd__dlygate4sd3_1
*I *2110:X O *D sky130_fd_sc_hd__mux2_1
*CAP
1 *2260:A 4.96387e-05
2 *2110:X 4.96387e-05
3 *2260:A *2110:S 0
4 *2260:A *293:6 3.22879e-05
*RES
1 *2110:X *2260:A 47.1186 
*END

*D_NET *62 0.000543764
*CONN
*I *2214:A I *D sky130_fd_sc_hd__dlygate4sd3_1
*I *2115:X O *D sky130_fd_sc_hd__a22o_1
*CAP
1 *2214:A 0
2 *2115:X 0.000209758
3 *62:10 0.000209758
4 *62:10 *183:10 8.57577e-05
5 *62:10 *281:92 3.84905e-05
*RES
1 *2115:X *62:10 41.48 
2 *62:10 *2214:A 38 
*END

*D_NET *63 0.00068512
*CONN
*I *2330:A I *D sky130_fd_sc_hd__dlygate4sd3_1
*I *2117:X O *D sky130_fd_sc_hd__a22o_1
*CAP
1 *2330:A 0
2 *2117:X 0.000192782
3 *63:8 0.000192782
4 *63:8 *2170:CLK 0.000279227
5 *63:8 *279:124 5.55743e-06
6 *63:8 *341:10 1.47709e-05
*RES
1 *2117:X *63:8 27.8057 
2 *63:8 *2330:A 23 
*END

*D_NET *64 0.000672814
*CONN
*I *2324:A I *D sky130_fd_sc_hd__dlygate4sd3_1
*I *2119:X O *D sky130_fd_sc_hd__a22o_1
*CAP
1 *2324:A 0.000103564
2 *2119:X 0.000103564
3 *2324:A *2071:A2 9.98726e-05
4 *2324:A *2119:A1 4.70479e-05
5 *2324:A *95:6 0.000318766
*RES
1 *2119:X *2324:A 49.9771 
*END

*D_NET *65 0.00061842
*CONN
*I *2326:A I *D sky130_fd_sc_hd__dlygate4sd3_1
*I *2121:X O *D sky130_fd_sc_hd__a22o_1
*CAP
1 *2326:A 8.59517e-05
2 *2121:X 8.59517e-05
3 *2326:A *2121:A1 0.000128964
4 *2326:A *161:46 0.000317553
*RES
1 *2121:X *2326:A 49.9771 
*END

*D_NET *66 0.000877911
*CONN
*I *2220:A I *D sky130_fd_sc_hd__dlygate4sd3_1
*I *2123:X O *D sky130_fd_sc_hd__a22o_1
*CAP
1 *2220:A 0.000113343
2 *2123:X 6.58385e-05
3 *66:8 0.000179182
4 *2220:A *2122:A1 2.64616e-05
5 *2220:A *179:12 0.000221992
6 *66:8 *2122:A1 0.000135547
7 *66:8 *102:27 0.000135547
*RES
1 *2123:X *66:8 39.9057 
2 *66:8 *2220:A 40.5271 
*END

*D_NET *67 0.000609516
*CONN
*I *2227:A I *D sky130_fd_sc_hd__dlygate4sd3_1
*I *2125:X O *D sky130_fd_sc_hd__a22o_1
*CAP
1 *2227:A 0
2 *2125:X 0.000194738
3 *67:10 0.000194738
4 *67:10 *2174:CLK 2.93845e-05
5 *67:10 *180:61 0.000139647
6 *67:10 *180:110 1.01436e-05
7 *67:10 *197:10 4.08641e-05
*RES
1 *2125:X *67:10 41.48 
2 *67:10 *2227:A 38 
*END

*D_NET *68 0.000582061
*CONN
*I *2222:A I *D sky130_fd_sc_hd__dlygate4sd3_1
*I *2127:X O *D sky130_fd_sc_hd__a22o_1
*CAP
1 *2222:A 8.50442e-05
2 *2127:X 5.9652e-05
3 *68:8 0.000144696
4 *2222:A *2175:CLK 0.00010018
5 *68:8 *2175:CLK 0.00014411
6 *68:8 *279:90 4.83778e-05
*RES
1 *2127:X *68:8 39.9057 
2 *68:8 *2222:A 40.0714 
*END

*D_NET *69 0.00159576
*CONN
*I *2225:A I *D sky130_fd_sc_hd__dlygate4sd3_1
*I *2130:Y O *D sky130_fd_sc_hd__o31ai_1
*CAP
1 *2225:A 6.71548e-05
2 *2130:Y 0.000456335
3 *69:10 0.000523489
4 *2225:A *279:73 9.41704e-05
5 *69:10 *2128:B 0
6 *69:10 *2129:A3 4.78793e-05
7 *69:10 *2130:B1 1.83763e-05
8 *69:10 *2190:CLK 0
9 *69:10 *85:34 0.0002263
10 *69:10 *108:10 2.24048e-05
11 *69:10 *194:8 0.000139647
12 *69:10 *195:8 0
13 *69:10 *279:73 0
*RES
1 *2130:Y *69:10 46.0993 
2 *69:10 *2225:A 39.0979 
*END

*D_NET *70 0.000747519
*CONN
*I *2320:A I *D sky130_fd_sc_hd__dlygate4sd3_1
*I *2132:X O *D sky130_fd_sc_hd__a22o_1
*CAP
1 *2320:A 7.46876e-05
2 *2132:X 7.3399e-05
3 *70:8 0.000148087
4 *2320:A *181:137 0.000182222
5 *2320:A *276:62 7.17698e-05
6 *70:8 *113:20 6.25872e-05
7 *70:8 *282:111 0.000134767
*RES
1 *2132:X *70:8 39.9057 
2 *70:8 *2320:A 40.0507 
*END

*D_NET *71 0.000719932
*CONN
*I *2322:A I *D sky130_fd_sc_hd__dlygate4sd3_1
*I *2134:X O *D sky130_fd_sc_hd__a22o_1
*CAP
1 *2322:A 0.000155417
2 *2134:X 0.000155417
3 *2322:A *124:110 9.79925e-05
4 *2322:A *276:62 0.000311106
*RES
1 *2134:X *2322:A 49.9771 
*END

*D_NET *72 0.00249958
*CONN
*I *2216:A I *D sky130_fd_sc_hd__dlygate4sd3_1
*I *2136:X O *D sky130_fd_sc_hd__a22o_1
*CAP
1 *2216:A 0.000369621
2 *2136:X 0.000440304
3 *72:8 0.000809924
4 *2216:A *100:14 0
5 *2216:A *121:25 0
6 *2216:A *138:12 0
7 *2216:A *179:59 0.000228909
8 *2216:A *181:106 0.000244701
9 *72:8 *2136:A2 5.37001e-05
10 *72:8 *124:31 0.000352426
*RES
1 *2136:X *72:8 44.3386 
2 *72:8 *2216:A 47.0107 
*END

*D_NET *73 0.000672227
*CONN
*I *2232:A I *D sky130_fd_sc_hd__dlygate4sd3_1
*I *2139:Y O *D sky130_fd_sc_hd__a21oi_1
*CAP
1 *2232:A 2.73436e-05
2 *2139:Y 0.000148619
3 *73:8 0.000175962
4 *2232:A *2194:CLK 0.000143655
5 *2232:A *282:295 7.95762e-05
6 *73:8 *200:22 3.1231e-05
7 *73:8 *201:10 6.58399e-05
*RES
1 *2139:Y *73:8 41.3143 
2 *73:8 *2232:A 39.5743 
*END

*D_NET *74 0.000694326
*CONN
*I *2243:A I *D sky130_fd_sc_hd__dlygate4sd3_1
*I *2143:X O *D sky130_fd_sc_hd__o22a_1
*CAP
1 *2243:A 3.99513e-05
2 *2143:X 0.000160919
3 *74:10 0.000200871
4 *74:10 *2142:A1 8.62876e-05
5 *74:10 *2143:B1 5.79559e-05
6 *74:10 *219:16 0.000137351
7 *4:18 *2243:A 1.09903e-05
*RES
1 *2143:X *74:10 40.7757 
2 *74:10 *2243:A 38.8493 
*END

*D_NET *75 0.000374314
*CONN
*I *2246:A I *D sky130_fd_sc_hd__dlygate4sd3_1
*I *2146:Y O *D sky130_fd_sc_hd__a21oi_1
*CAP
1 *2246:A 0
2 *2146:Y 0.00014227
3 *75:10 0.00014227
4 *75:10 *2146:B1 7.51453e-06
5 *75:10 *2194:CLK 1.71005e-05
6 *75:10 *144:10 2.84201e-05
7 *75:10 *145:14 3.67392e-05
*RES
1 *2146:Y *75:10 40.5634 
2 *75:10 *2246:A 38 
*END

*D_NET *76 0.00287811
*CONN
*I *2249:A I *D sky130_fd_sc_hd__dlygate4sd3_1
*I *2149:Y O *D sky130_fd_sc_hd__a21oi_1
*CAP
1 *2249:A 0.000372971
2 *2149:Y 0.000388219
3 *76:8 0.00076119
4 *2249:A *2069:B 0.000265477
5 *2249:A *2245:A 0.000391685
6 *2249:A *93:8 0.000265477
7 *2249:A *175:47 0.000246036
8 *2249:A *213:20 8.36198e-05
9 *2249:A *213:58 4.84405e-05
10 *76:8 *2149:A1 3.66555e-05
11 *76:8 *2149:A2 1.83327e-05
*RES
1 *2149:Y *76:8 42.9093 
2 *76:8 *2249:A 48.5436 
*END

*D_NET *77 0.000252916
*CONN
*I *2251:A I *D sky130_fd_sc_hd__dlygate4sd3_1
*I *2151:X O *D sky130_fd_sc_hd__a32o_1
*CAP
1 *2251:A 0
2 *2151:X 7.39533e-05
3 *77:8 7.39533e-05
4 *77:8 *207:57 0
5 *77:8 *211:31 3.56537e-05
6 *77:8 *219:26 6.93553e-05
*RES
1 *2151:X *77:8 39.9057 
2 *77:8 *2251:A 38 
*END

*D_NET *78 0.00117503
*CONN
*I *2229:A I *D sky130_fd_sc_hd__dlygate4sd3_1
*I *2155:Y O *D sky130_fd_sc_hd__o21ai_0
*CAP
1 *2229:A 0
2 *2155:Y 0.000263564
3 *78:10 0.000263564
4 *78:10 *2155:A2 0.000311998
5 *78:10 *2160:B 0.000185538
6 *78:10 *150:14 3.63874e-05
7 *78:10 *280:38 0.000113973
*RES
1 *2155:Y *78:10 45.2293 
2 *78:10 *2229:A 38 
*END

*D_NET *79 0.000619811
*CONN
*I *2235:A I *D sky130_fd_sc_hd__dlygate4sd3_1
*I *2159:Y O *D sky130_fd_sc_hd__o21ai_0
*CAP
1 *2235:A 4.22524e-05
2 *2159:Y 5.30948e-05
3 *79:8 9.53473e-05
4 *2235:A *177:37 5.3304e-05
5 *2235:A *280:38 9.66668e-05
6 *79:8 *177:37 0.000138504
7 *79:8 *205:10 0.000140642
*RES
1 *2159:Y *79:8 39.9057 
2 *79:8 *2235:A 39.0979 
*END

*D_NET *80 0.000423052
*CONN
*I *2318:A I *D sky130_fd_sc_hd__dlygate4sd3_1
*I *2163:X O *D sky130_fd_sc_hd__o22a_1
*CAP
1 *2318:A 0
2 *2163:X 0.000117997
3 *80:10 0.000117997
4 *80:10 *207:10 0.000141605
5 *80:10 *345:12 4.54525e-05
*RES
1 *2163:X *80:10 40.5271 
2 *80:10 *2318:A 38 
*END

*D_NET *81 0.013182
*CONN
*I *2053:A2 I *D sky130_fd_sc_hd__a21oi_1
*I *2111:A2 I *D sky130_fd_sc_hd__a21boi_0
*I *2049:A2 I *D sky130_fd_sc_hd__a21o_1
*I *2057:B1 I *D sky130_fd_sc_hd__o2111ai_1
*I *2048:Y O *D sky130_fd_sc_hd__a21boi_0
*CAP
1 *2053:A2 2.34823e-05
2 *2111:A2 0.000338966
3 *2049:A2 0
4 *2057:B1 0
5 *2048:Y 0
6 *81:49 0.000512844
7 *81:43 0.000670571
8 *81:22 0.000653243
9 *81:16 0.00129451
10 *81:8 0.00252927
11 *81:6 0.00141479
12 *2111:A2 *2111:A1 6.17437e-06
13 *81:8 *2110:A1 0
14 *81:8 *2168:CLK 9.98995e-05
15 *81:8 *174:15 0.000166666
16 *81:8 *178:14 0
17 *81:8 *178:20 9.23932e-05
18 *81:8 *178:22 0.000113464
19 *81:8 *266:14 6.66613e-05
20 *81:8 *266:27 0.00139709
21 *81:8 *280:14 0.000677963
22 *81:8 *280:94 0.000297012
23 *81:8 *294:10 0.00014411
24 *81:8 *338:10 0
25 *81:16 *2052:A 0.000188934
26 *81:16 *2052:B 5.50049e-05
27 *81:16 *2205:A 0.00011447
28 *81:16 *2253:A 9.84851e-05
29 *81:16 *174:15 6.2039e-05
30 *81:16 *176:10 0.000100061
31 *81:16 *219:26 9.84794e-05
32 *81:16 *225:10 5.50049e-05
33 *81:22 *2057:A1 1.09783e-05
34 *81:22 *2152:B 0.000173026
35 *81:22 *219:26 1.22906e-05
36 *81:22 *225:10 0.000344356
37 *81:43 *2053:B1 0.000228903
38 *81:43 *2057:A1 5.3304e-05
39 *81:43 *2057:C1 1.14154e-05
40 *81:43 *2057:D1 5.90675e-06
41 *81:43 *2111:A1 0
42 *81:43 *2199:CLK 4.96717e-05
43 *81:43 *210:20 0.000356724
44 *81:43 *210:24 2.19539e-05
45 *81:43 *211:10 3.47781e-05
46 *81:43 *212:10 8.62876e-05
47 *81:43 *282:308 0
48 *81:43 *282:340 3.34457e-05
49 *81:49 *2111:A1 0
50 *81:49 *210:20 0.000228909
51 *81:49 *261:25 0.000113153
52 *42:70 *81:43 3.06213e-05
53 *42:70 *81:49 6.8789e-05
54 *42:78 *2111:A2 0
55 *42:78 *81:49 0
56 *47:8 *81:8 4.58924e-05
*RES
1 *2048:Y *81:6 38 
2 *81:6 *81:8 42.7543 
3 *81:8 *81:16 36.2736 
4 *81:16 *81:22 35.075 
5 *81:22 *2057:B1 23 
6 *81:22 *81:43 41.0614 
7 *81:43 *81:49 19.785 
8 *81:49 *2049:A2 38 
9 *81:49 *2111:A2 44.3179 
10 *81:43 *2053:A2 23.4971 
*END

*D_NET *82 0.000974063
*CONN
*I *2237:A I *D sky130_fd_sc_hd__dlygate4sd3_1
*I *2050:Y O *D sky130_fd_sc_hd__nand2_1
*CAP
1 *2237:A 0
2 *2050:Y 0.000137427
3 *82:10 0.000137427
4 *82:10 *2050:B 2.80394e-05
5 *82:10 *177:16 0.00025779
6 *82:10 *207:8 0.0003132
7 *82:10 *345:24 0.00010018
*RES
1 *2050:Y *82:10 28.5514 
2 *82:10 *2237:A 23 
*END

*D_NET *83 0.00421622
*CONN
*I *2057:C1 I *D sky130_fd_sc_hd__o2111ai_1
*I *2052:B I *D sky130_fd_sc_hd__nand2_1
*I *2051:Y O *D sky130_fd_sc_hd__nand2_1
*CAP
1 *2057:C1 0.000445873
2 *2052:B 0.00029519
3 *2051:Y 0.000586323
4 *83:10 0.00132739
5 *2052:B *2151:B2 3.47781e-05
6 *2052:B *2198:RESET_B 0
7 *2052:B *177:10 0.000141888
8 *2052:B *177:99 0.000114083
9 *2052:B *209:10 0.000222113
10 *2052:B *282:353 0
11 *2052:B *282:355 0
12 *2057:C1 *2151:B1 1.19077e-05
13 *2057:C1 *2151:B2 0.000274226
14 *2057:C1 *282:340 8.06804e-06
15 *2057:C1 *282:351 0.00013174
16 *83:10 *2151:B2 0.000111852
17 *83:10 *177:99 0.000103949
18 *83:10 *222:136 0.000340424
19 *81:16 *2052:B 5.50049e-05
20 *81:43 *2057:C1 1.14154e-05
*RES
1 *2051:Y *83:10 47.3214 
2 *83:10 *2052:B 45.105 
3 *83:10 *2057:C1 46.265 
*END

*D_NET *84 0.000611502
*CONN
*I *2056:B I *D sky130_fd_sc_hd__nor2_1
*I *2055:Y O *D sky130_fd_sc_hd__nand2_1
*CAP
1 *2056:B 0
2 *2055:Y 0.000183004
3 *84:8 0.000183004
4 *84:8 *249:8 1.33792e-05
5 *84:8 *282:365 0.000146598
6 *4:34 *84:8 8.55177e-05
*RES
1 *2055:Y *84:8 42.7229 
2 *84:8 *2056:B 38 
*END

*D_NET *85 0.00655812
*CONN
*I *2138:A2 I *D sky130_fd_sc_hd__a311oi_1
*I *2129:A2 I *D sky130_fd_sc_hd__a32oi_1
*I *2113:C_N I *D sky130_fd_sc_hd__nor3b_1
*I *2340:A I *D sky130_fd_sc_hd__clkbuf_2
*I *2057:Y O *D sky130_fd_sc_hd__o2111ai_1
*CAP
1 *2138:A2 0.000290022
2 *2129:A2 0
3 *2113:C_N 2.14194e-05
4 *2340:A 0
5 *2057:Y 0.000173304
6 *85:34 0.000471
7 *85:19 0.000918766
8 *85:12 0.000895616
9 *85:8 0.000932595
10 *2113:C_N *2130:A1 5.90675e-06
11 *2138:A2 *2138:A1 0.000139346
12 *2138:A2 *123:21 0
13 *2138:A2 *124:14 0.000111852
14 *2138:A2 *210:50 7.23925e-05
15 *2138:A2 *219:26 9.80465e-05
16 *85:8 *210:24 9.20311e-06
17 *85:8 *219:26 7.90568e-05
18 *85:8 *225:10 0.000196549
19 *85:12 *2043:A 0.000185434
20 *85:12 *2240:A 2.18409e-05
21 *85:12 *207:98 0.000487352
22 *85:19 *2113:B 5.37348e-06
23 *85:19 *2250:A 5.50106e-05
24 *85:19 *207:98 5.79559e-05
25 *85:19 *222:6 1.59071e-05
26 *85:19 *280:6 0.000136259
27 *85:34 *2113:B 1.57571e-05
28 *85:34 *2129:A3 0
29 *85:34 *2130:A1 0.000219032
30 *85:34 *2130:B1 8.87961e-05
31 *85:34 *2190:CLK 2.96369e-05
32 *85:34 *125:12 9.5877e-05
33 *85:34 *279:41 3.04308e-05
34 *85:34 *279:50 5.07181e-05
35 *2057:A2 *85:8 6.6869e-05
36 *42:39 *2138:A2 0.000194318
37 *42:45 *2138:A2 1.22803e-05
38 *42:45 *85:8 9.28842e-05
39 *42:45 *85:12 5.50106e-05
40 *69:10 *85:34 0.0002263
*RES
1 *2057:Y *85:8 42.7229 
2 *85:8 *85:12 24.1971 
3 *85:12 *2340:A 23 
4 *85:12 *85:19 7.76786 
5 *85:19 *2113:C_N 23.4971 
6 *85:19 *85:34 39.3214 
7 *85:34 *2129:A2 23 
8 *85:8 *2138:A2 45.0014 
*END

*D_NET *86 0.0017003
*CONN
*I *2310:A I *D sky130_fd_sc_hd__dlygate4sd3_1
*I *2060:Y O *D sky130_fd_sc_hd__nor2_1
*CAP
1 *2310:A 0
2 *2060:Y 0.00071359
3 *86:10 0.00071359
4 *86:10 *2060:A 0.000247704
5 *86:10 *277:120 0
6 *86:10 *318:8 2.5415e-05
*RES
1 *2060:Y *86:10 49.5379 
2 *86:10 *2310:A 38 
*END

*D_NET *87 0.00180352
*CONN
*I *2114:A I *D sky130_fd_sc_hd__nand2_1
*I *2062:A2 I *D sky130_fd_sc_hd__a21oi_1
*I *2061:Y O *D sky130_fd_sc_hd__o21ai_0
*CAP
1 *2114:A 9.27133e-05
2 *2062:A2 0.00033885
3 *2061:Y 0.000141527
4 *87:8 0.000387663
5 *2062:A2 *281:92 0.000228473
6 *2114:A *2061:A1 0.000102438
7 *2114:A *2061:B1 6.17437e-06
8 *2114:A *126:10 0.000141344
9 *2114:A *162:36 2.50118e-05
10 *87:8 *278:10 0.000170807
11 *87:8 *279:90 0.000168515
*RES
1 *2061:Y *87:8 40.2579 
2 *87:8 *2062:A2 45.2914 
3 *2061:Y *2114:A 48.5479 
*END

*D_NET *88 0.0107256
*CONN
*I *2064:C I *D sky130_fd_sc_hd__or3_1
*I *2083:A2 I *D sky130_fd_sc_hd__o31ai_1
*I *2145:B I *D sky130_fd_sc_hd__nand3_1
*I *2122:A1 I *D sky130_fd_sc_hd__o21ai_0
*I *2097:C I *D sky130_fd_sc_hd__or3_1
*I *2063:Y O *D sky130_fd_sc_hd__nand2b_1
*CAP
1 *2064:C 0.00050636
2 *2083:A2 0
3 *2145:B 0.000206853
4 *2122:A1 0.0003139
5 *2097:C 3.28126e-05
6 *2063:Y 0.000157995
7 *88:65 0.000481369
8 *88:61 0.00111708
9 *88:26 0.000566514
10 *88:18 0.00156092
11 *88:12 0.00142161
12 *2064:C *2064:A 2.18409e-05
13 *2064:C *2075:A 0.000443679
14 *2064:C *161:46 0
15 *2064:C *175:47 0
16 *2064:C *222:148 7.73389e-05
17 *2097:C *2082:A2 7.53384e-06
18 *2097:C *2097:A 2.32004e-05
19 *2097:C *102:6 4.6595e-05
20 *2097:C *181:100 5.3304e-05
21 *2122:A1 *2123:A2 5.02657e-05
22 *2122:A1 *2173:RESET_B 0.00014196
23 *2122:A1 *102:27 4.16654e-05
24 *2122:A1 *114:8 0
25 *2122:A1 *124:76 6.41631e-05
26 *2122:A1 *179:12 9.15843e-05
27 *2122:A1 *229:46 0
28 *2145:B *2145:A 9.5877e-05
29 *2145:B *100:14 0.000264564
30 *2145:B *124:61 0.000259986
31 *2145:B *179:59 0.000194309
32 *88:12 *2074:B 4.83778e-05
33 *88:12 *2197:RESET_B 0.000116314
34 *88:12 *161:46 0
35 *88:12 *175:47 0
36 *88:18 *146:10 2.45032e-06
37 *88:18 *157:21 0.000265466
38 *88:18 *180:87 0.000270809
39 *88:18 *219:50 0.000307863
40 *88:26 *2123:A2 1.01436e-05
41 *88:26 *124:61 0.00014652
42 *88:26 *181:100 0.000185755
43 *88:26 *181:106 0
44 *88:26 *229:46 6.12496e-06
45 *88:61 *175:47 0
46 *88:65 *2083:A1 5.3304e-05
47 *88:65 *2083:A3 1.6318e-05
48 *88:65 *101:6 0.00023415
49 *88:65 *229:30 0.000656748
50 *2220:A *2122:A1 2.64616e-05
51 *66:8 *2122:A1 0.000135547
*RES
1 *2063:Y *88:12 41.7286 
2 *88:12 *88:18 46.3436 
3 *88:18 *88:26 5.16821 
4 *88:26 *2097:C 39.0979 
5 *88:26 *2122:A1 45.5193 
6 *88:18 *2145:B 44.4939 
7 *88:12 *88:61 1.90571 
8 *88:61 *88:65 27.2939 
9 *88:65 *2083:A2 23 
10 *88:61 *2064:C 48.3986 
*END

*D_NET *89 0.00516964
*CONN
*I *2065:A2 I *D sky130_fd_sc_hd__o21ai_0
*I *2114:B I *D sky130_fd_sc_hd__nand2_1
*I *2064:X O *D sky130_fd_sc_hd__or3_1
*CAP
1 *2065:A2 0
2 *2114:B 0
3 *2064:X 0.00030055
4 *89:25 0.000446509
5 *89:12 0.00072607
6 *89:6 0.00147313
7 *89:12 *2061:A1 1.34354e-05
8 *89:12 *2070:C 4.17929e-05
9 *89:12 *2124:A2 0.000277714
10 *89:12 *101:10 0.000404986
11 *89:12 *101:20 0.000114083
12 *89:12 *104:12 0.000199701
13 *89:12 *106:10 6.93553e-05
14 *89:12 *108:10 0.000180412
15 *89:12 *132:10 2.72055e-05
16 *89:12 *181:30 2.472e-05
17 *89:12 *278:10 0
18 *89:12 *278:21 0
19 *89:12 *278:32 0
20 *89:25 *2125:A2 5.37348e-06
21 *89:25 *2125:B2 1.39431e-05
22 *89:25 *278:32 0.000282986
23 *89:25 *279:109 0.000567678
*RES
1 *2064:X *89:6 26.48 
2 *89:6 *89:12 48.1043 
3 *89:12 *2114:B 23 
4 *89:6 *89:25 40.5436 
5 *89:25 *2065:A2 23 
*END

*D_NET *90 0.0017136
*CONN
*I *2067:A2 I *D sky130_fd_sc_hd__a21oi_1
*I *2116:A I *D sky130_fd_sc_hd__nand2_1
*I *2065:Y O *D sky130_fd_sc_hd__o21ai_0
*CAP
1 *2067:A2 0.000150803
2 *2116:A 0
3 *2065:Y 0
4 *90:12 0.000477439
5 *90:4 0.000628242
6 *2067:A2 *2065:B1 3.24854e-05
7 *2067:A2 *281:175 0.000144067
8 *90:12 *2065:A1 4.39725e-05
9 *90:12 *2065:B1 6.49496e-05
10 *90:12 *2186:RESET_B 3.67392e-05
11 *90:12 *94:10 4.83547e-05
12 *90:12 *181:24 8.65442e-05
*RES
1 *2065:Y *90:4 23 
2 *90:4 *90:12 37.2914 
3 *90:12 *2116:A 23 
4 *90:4 *2067:A2 26.8529 
*END

*D_NET *91 0.000223705
*CONN
*I *2292:A I *D sky130_fd_sc_hd__dlygate4sd3_1
*I *2066:Y O *D sky130_fd_sc_hd__nor2_1
*CAP
1 *2292:A 3.49383e-05
2 *2066:Y 3.49383e-05
3 *2292:A *281:159 5.56279e-05
4 *49:8 *2292:A 9.82009e-05
*RES
1 *2066:Y *2292:A 47.0979 
*END

*D_NET *92 0.000617885
*CONN
*I *2281:A I *D sky130_fd_sc_hd__dlygate4sd3_1
*I *2068:Y O *D sky130_fd_sc_hd__nor2_1
*CAP
1 *2281:A 0.000150166
2 *2068:Y 0.000150166
3 *2281:A *286:6 0.000317553
*RES
1 *2068:Y *2281:A 49.9564 
*END

*D_NET *93 0.00938693
*CONN
*I *2101:C I *D sky130_fd_sc_hd__or3_1
*I *2145:C I *D sky130_fd_sc_hd__nand3_1
*I *2086:A2 I *D sky130_fd_sc_hd__o31ai_1
*I *2070:C I *D sky130_fd_sc_hd__or3_1
*I *2124:A1 I *D sky130_fd_sc_hd__o21ai_0
*I *2069:Y O *D sky130_fd_sc_hd__nand2b_1
*CAP
1 *2101:C 0.000281423
2 *2145:C 8.48338e-05
3 *2086:A2 2.33986e-05
4 *2070:C 0.000424465
5 *2124:A1 0
6 *2069:Y 0.00126712
7 *93:56 0.000559253
8 *93:50 0.0005756
9 *93:12 0.00062557
10 *93:8 0.00110902
11 *2070:C *2124:A2 1.14452e-05
12 *2070:C *94:10 5.72217e-05
13 *2070:C *181:24 3.47781e-05
14 *2070:C *181:26 0.000367949
15 *2070:C *181:76 0.000441065
16 *2070:C *278:32 0
17 *2101:C *2079:B 4.37033e-05
18 *2101:C *2097:A 0
19 *2101:C *2137:A1 0
20 *2101:C *100:23 6.48142e-05
21 *2101:C *100:34 0.000253606
22 *2101:C *101:74 0.000109895
23 *2101:C *157:36 0
24 *2101:C *229:32 1.40958e-05
25 *2145:C *2137:A1 0
26 *2145:C *100:23 8.4047e-05
27 *2145:C *229:90 0
28 *93:8 *2063:B 6.39489e-06
29 *93:8 *2069:A_N 0.000434833
30 *93:8 *2069:B 0.000182543
31 *93:8 *2086:B1 0
32 *93:8 *216:63 9.69279e-05
33 *93:12 *2124:A2 0.000264409
34 *93:12 *101:10 0.000352547
35 *93:12 *181:26 0.000197479
36 *93:12 *181:28 0.000431843
37 *93:12 *181:30 1.14452e-05
38 *93:50 *143:8 0.000449764
39 *93:50 *229:90 8.29264e-05
40 *93:56 *2148:B 6.97417e-05
41 *93:56 *219:50 1.21972e-05
42 *93:56 *229:90 5.3304e-05
43 *2249:A *93:8 0.000265477
44 *89:12 *2070:C 4.17929e-05
*RES
1 *2069:Y *93:8 40.6693 
2 *93:8 *93:12 23.2443 
3 *93:12 *2124:A1 38 
4 *93:12 *2070:C 49.31 
5 *93:8 *2086:A2 23.3832 
6 *2069:Y *93:50 44.1107 
7 *93:50 *93:56 32.5271 
8 *93:56 *2145:C 39.5536 
9 *93:56 *2101:C 43.9657 
*END

*D_NET *94 0.00212168
*CONN
*I *2071:A2 I *D sky130_fd_sc_hd__o21ai_0
*I *2116:B I *D sky130_fd_sc_hd__nand2_1
*I *2070:X O *D sky130_fd_sc_hd__or3_1
*CAP
1 *2071:A2 0.000287781
2 *2116:B 0
3 *2070:X 0.000333457
4 *94:10 0.000621238
5 *2071:A2 *2071:A1 5.58003e-05
6 *2071:A2 *2119:A1 0.000272918
7 *2071:A2 *2186:RESET_B 0.00013577
8 *2071:A2 *95:6 4.21362e-05
9 *94:10 *2070:B 0
10 *94:10 *2186:RESET_B 3.67392e-05
11 *94:10 *180:19 0
12 *94:10 *181:18 0
13 *94:10 *181:24 6.68793e-05
14 *94:10 *241:10 6.35124e-05
15 *2070:C *94:10 5.72217e-05
16 *2324:A *2071:A2 9.98726e-05
17 *90:12 *94:10 4.83547e-05
*RES
1 *2070:X *94:10 44.7736 
2 *94:10 *2116:B 38 
3 *94:10 *2071:A2 45.2707 
*END

*D_NET *95 0.00309081
*CONN
*I *2072:A2 I *D sky130_fd_sc_hd__a21oi_1
*I *2118:A I *D sky130_fd_sc_hd__nand2_1
*I *2071:Y O *D sky130_fd_sc_hd__o21ai_0
*CAP
1 *2072:A2 0
2 *2118:A 0.000152694
3 *2071:Y 0.000508322
4 *95:23 0.000309997
5 *95:6 0.000971014
6 *2118:A *2119:B2 2.18032e-05
7 *2118:A *276:25 2.92911e-06
8 *95:6 *2071:A1 6.17437e-06
9 *95:6 *2119:A1 3.00511e-05
10 *95:6 *276:25 3.82058e-06
11 *95:23 *2072:A1 5.3304e-05
12 *95:23 *2171:CLK 0.000249634
13 *95:23 *2171:RESET_B 0
14 *95:23 *180:30 0.000270532
15 *95:23 *276:10 0.000119659
16 *95:23 *335:10 2.99696e-05
17 *2071:A2 *95:6 4.21362e-05
18 *2324:A *95:6 0.000318766
*RES
1 *2071:Y *95:6 30.2914 
2 *95:6 *2118:A 25.2993 
3 *95:6 *95:23 37.9336 
4 *95:23 *2072:A2 23 
*END

*D_NET *96 0.000571135
*CONN
*I *2278:A I *D sky130_fd_sc_hd__dlygate4sd3_1
*I *2073:Y O *D sky130_fd_sc_hd__nor2_1
*CAP
1 *2278:A 0
2 *2073:Y 0.000257215
3 *96:10 0.000257215
4 *96:10 *2073:B 5.67058e-05
5 *96:10 *215:10 0
6 *96:10 *215:23 0
7 *96:10 *270:10 0
8 *96:10 *283:8 0
*RES
1 *2073:Y *96:10 41.9564 
2 *96:10 *2278:A 38 
*END

*D_NET *97 0.00275158
*CONN
*I *2075:C I *D sky130_fd_sc_hd__or3_1
*I *2089:B I *D sky130_fd_sc_hd__or3_1
*I *2126:A1 I *D sky130_fd_sc_hd__o21ai_0
*I *2074:Y O *D sky130_fd_sc_hd__nand2_1
*CAP
1 *2075:C 0.000244885
2 *2089:B 0
3 *2126:A1 0.000154283
4 *2074:Y 7.37141e-05
5 *97:14 0.000592923
6 *97:8 0.00075724
7 *2075:C *161:46 0
8 *2075:C *229:26 2.96369e-05
9 *2075:C *229:112 7.70598e-05
10 *2126:A1 *2089:A 9.84794e-05
11 *2126:A1 *2089:C 9.74722e-05
12 *2126:A1 *101:20 1.32314e-05
13 *97:8 *180:87 5.41288e-05
14 *97:14 *2074:A 0.000169683
15 *97:14 *161:46 0
16 *97:14 *216:59 0.000192087
17 *97:14 *229:12 0.000127879
18 *97:14 *229:26 6.88819e-05
*RES
1 *2074:Y *97:8 39.0979 
2 *97:8 *97:14 24.2593 
3 *97:14 *2126:A1 26.8529 
4 *97:14 *2089:B 23 
5 *97:8 *2075:C 42.7229 
*END

*D_NET *98 0.00250075
*CONN
*I *2118:B I *D sky130_fd_sc_hd__nand2_1
*I *2076:A2 I *D sky130_fd_sc_hd__o21ai_0
*I *2075:X O *D sky130_fd_sc_hd__or3_1
*CAP
1 *2118:B 0.000318272
2 *2076:A2 8.44631e-05
3 *2075:X 0.000239152
4 *98:10 0.000641888
5 *2076:A2 *2076:B1 0.000143655
6 *2076:A2 *181:76 6.16045e-05
7 *2076:A2 *181:80 5.67058e-05
8 *2118:B *2076:B1 5.08393e-05
9 *2118:B *2267:A 0.000129175
10 *2118:B *161:46 0.000129504
11 *2118:B *180:19 6.8387e-05
12 *2118:B *269:23 7.73177e-05
13 *2118:B *336:10 5.0518e-05
14 *98:10 *2075:A 1.94812e-05
15 *98:10 *161:46 0.000377181
16 *98:10 *180:10 4.48568e-05
17 *98:10 *180:19 7.75329e-06
18 *98:10 *222:154 0
*RES
1 *2075:X *98:10 43.6964 
2 *98:10 *2076:A2 40.5271 
3 *98:10 *2118:B 46.5964 
*END

*D_NET *99 0.00295828
*CONN
*I *2077:A2 I *D sky130_fd_sc_hd__a21oi_1
*I *2120:B1 I *D sky130_fd_sc_hd__o21ai_0
*I *2076:Y O *D sky130_fd_sc_hd__o21ai_0
*CAP
1 *2077:A2 0
2 *2120:B1 0
3 *2076:Y 0.000240247
4 *99:27 0.000466584
5 *99:14 0.000270216
6 *99:6 0.000977048
7 *99:6 *2076:B1 5.67058e-05
8 *99:6 *181:80 0.000118217
9 *99:14 *161:54 0
10 *99:14 *181:80 7.05498e-05
11 *99:27 *2077:A1 5.5792e-05
12 *99:27 *124:86 2.26406e-05
13 *99:27 *276:25 0.000174442
14 *99:27 *276:33 8.21456e-06
15 *99:27 *284:8 2.35118e-06
16 *99:27 *337:10 0.000115526
17 *4:10 *99:14 6.48134e-05
18 *4:10 *99:27 0.00031493
*RES
1 *2076:Y *99:6 26.9564 
2 *99:6 *99:14 33.9564 
3 *99:14 *2120:B1 23 
4 *99:6 *99:27 41.455 
5 *99:27 *2077:A2 23 
*END

*D_NET *100 0.00665845
*CONN
*I *2120:A2 I *D sky130_fd_sc_hd__o21ai_0
*I *2080:A3 I *D sky130_fd_sc_hd__o31ai_1
*I *2148:B I *D sky130_fd_sc_hd__nand2_1
*I *2137:A2 I *D sky130_fd_sc_hd__o21ai_0
*I *2078:Y O *D sky130_fd_sc_hd__nand2_1
*CAP
1 *2120:A2 0
2 *2080:A3 0
3 *2148:B 0.000132557
4 *2137:A2 0
5 *2078:Y 0.000111444
6 *100:49 0.000658735
7 *100:34 0.000954779
8 *100:23 0.000509335
9 *100:14 0.000602935
10 *100:6 0.000795113
11 *2148:B *219:50 0.000490918
12 *2148:B *229:90 0.000274514
13 *100:6 *143:8 9.94357e-05
14 *100:14 *138:12 3.92407e-05
15 *100:14 *144:10 5.26733e-06
16 *100:14 *179:59 0.00014065
17 *100:23 *229:73 0
18 *100:23 *229:90 3.21327e-05
19 *100:34 *2097:A 0
20 *100:34 *124:61 0
21 *100:34 *157:21 0.000185755
22 *100:34 *181:86 0
23 *100:34 *188:8 4.334e-05
24 *100:34 *222:71 5.65824e-05
25 *100:34 *222:84 0
26 *100:49 *2094:A 0.000137361
27 *100:49 *2120:A1 0.000128501
28 *100:49 *2121:B2 1.00493e-05
29 *100:49 *2123:B1 0
30 *100:49 *2219:A 0.000100069
31 *100:49 *161:46 0.000100069
32 *100:49 *181:86 0
33 *100:49 *181:127 0
34 *100:49 *188:8 0.000259354
35 *100:49 *246:10 5.35429e-05
36 *2101:C *100:23 6.48142e-05
37 *2101:C *100:34 0.000253606
38 *2145:B *100:14 0.000264564
39 *2145:C *100:23 8.4047e-05
40 *2216:A *100:14 0
41 *93:56 *2148:B 6.97417e-05
*RES
1 *2078:Y *100:6 24.5743 
2 *100:6 *100:14 39.5286 
3 *100:14 *2137:A2 23 
4 *100:6 *100:23 16.9057 
5 *100:23 *2148:B 43.3857 
6 *100:23 *100:34 6.83571 
7 *100:34 *2080:A3 38 
8 *100:34 *100:49 29.5 
9 *100:49 *2120:A2 23 
*END

*D_NET *101 0.010545
*CONN
*I *2122:A2 I *D sky130_fd_sc_hd__o21ai_0
*I *2083:A3 I *D sky130_fd_sc_hd__o31ai_1
*I *2124:A2 I *D sky130_fd_sc_hd__o21ai_0
*I *2086:A3 I *D sky130_fd_sc_hd__o31ai_1
*I *2126:A2 I *D sky130_fd_sc_hd__o21ai_0
*I *2089:C I *D sky130_fd_sc_hd__or3_1
*I *2079:Y O *D sky130_fd_sc_hd__nand2_1
*CAP
1 *2122:A2 0.000195986
2 *2083:A3 8.67843e-05
3 *2124:A2 7.80494e-05
4 *2086:A3 5.39135e-05
5 *2126:A2 0
6 *2089:C 0.000205476
7 *2079:Y 0.00192137
8 *101:74 0.00054654
9 *101:20 0.000333086
10 *101:10 0.000329031
11 *101:8 0.000225558
12 *101:6 0.0016576
13 *2083:A3 *104:12 4.04598e-06
14 *2089:C *2089:A 9.84794e-05
15 *2089:C *108:8 5.3304e-05
16 *2122:A2 *2102:A2 0
17 *2122:A2 *102:27 4.06512e-05
18 *2122:A2 *114:8 0.000140958
19 *2122:A2 *117:21 0
20 *2122:A2 *229:46 0.000246748
21 *101:6 *229:30 0.00133428
22 *101:6 *229:32 0.000442475
23 *101:10 *181:30 2.24151e-05
24 *101:20 *181:30 5.56203e-05
25 *101:74 *2079:A 6.17437e-06
26 *101:74 *117:8 0.000348911
27 *101:74 *181:100 9.91798e-05
28 *101:74 *229:32 5.61255e-06
29 *101:74 *229:46 0.000116498
30 *2070:C *2124:A2 1.14452e-05
31 *2101:C *101:74 0.000109895
32 *2126:A1 *2089:C 9.74722e-05
33 *2126:A1 *101:20 1.32314e-05
34 *88:65 *2083:A3 1.6318e-05
35 *88:65 *101:6 0.00023415
36 *89:12 *2124:A2 0.000277714
37 *89:12 *101:10 0.000404986
38 *89:12 *101:20 0.000114083
39 *93:12 *2124:A2 0.000264409
40 *93:12 *101:10 0.000352547
*RES
1 *2079:Y *101:6 47.4429 
2 *101:6 *101:8 15 
3 *101:8 *101:10 5.42714 
4 *101:10 *101:20 18.1693 
5 *101:20 *2089:C 27.8264 
6 *101:20 *2126:A2 23 
7 *101:10 *2086:A3 38.6214 
8 *101:8 *2124:A2 41.6664 
9 *101:6 *2083:A3 24.0979 
10 *2079:Y *101:74 45.9336 
11 *101:74 *2122:A2 43.075 
*END

*D_NET *102 0.00347945
*CONN
*I *2122:B1 I *D sky130_fd_sc_hd__o21ai_0
*I *2082:A2 I *D sky130_fd_sc_hd__a21oi_1
*I *2080:Y O *D sky130_fd_sc_hd__o31ai_1
*CAP
1 *2122:B1 0
2 *2082:A2 0.000793283
3 *2080:Y 0.000300847
4 *102:27 0.00010616
5 *102:6 0.00120029
6 *2082:A2 *2097:A 5.24325e-05
7 *2082:A2 *2123:A1 0
8 *2082:A2 *118:29 0.000182826
9 *2082:A2 *229:46 5.50106e-05
10 *102:6 *2123:A1 0.000265472
11 *102:6 *181:100 4.38084e-05
12 *102:27 *179:12 5.50049e-05
13 *102:27 *229:46 1.58805e-05
14 *2082:A1 *2082:A2 5.67058e-05
15 *2097:C *2082:A2 7.53384e-06
16 *2097:C *102:6 4.6595e-05
17 *2122:A1 *102:27 4.16654e-05
18 *2122:A2 *102:27 4.06512e-05
19 *2316:A *2082:A2 2.30292e-05
20 *42:178 *2082:A2 5.67058e-05
21 *66:8 *102:27 0.000135547
*RES
1 *2080:Y *102:6 28.3857 
2 *102:6 *2082:A2 37.3757 
3 *102:6 *102:27 32.8793 
4 *102:27 *2122:B1 23 
*END

*D_NET *103 0.000335498
*CONN
*I *2315:A I *D sky130_fd_sc_hd__dlygate4sd3_1
*I *2081:Y O *D sky130_fd_sc_hd__nor2_1
*CAP
1 *2315:A 0
2 *2081:Y 5.14346e-05
3 *103:8 5.14346e-05
4 *103:8 *324:8 8.85189e-05
5 *42:178 *103:8 0.00014411
*RES
1 *2081:Y *103:8 39.9057 
2 *103:8 *2315:A 38 
*END

*D_NET *104 0.00146576
*CONN
*I *2085:A2 I *D sky130_fd_sc_hd__a21oi_1
*I *2124:B1 I *D sky130_fd_sc_hd__o21ai_0
*I *2083:Y O *D sky130_fd_sc_hd__o31ai_1
*CAP
1 *2085:A2 0.000337052
2 *2124:B1 0
3 *2083:Y 0
4 *104:12 0.00012844
5 *104:4 0.000465492
6 *2085:A2 *2083:B1 4.9662e-05
7 *2085:A2 *196:6 0.000218503
8 *104:12 *278:21 4.34173e-05
9 *104:12 *278:32 1.94522e-05
10 *2083:A3 *104:12 4.04598e-06
11 *89:12 *104:12 0.000199701
*RES
1 *2083:Y *104:4 23 
2 *104:4 *104:12 33.2314 
3 *104:12 *2124:B1 23 
4 *104:4 *2085:A2 29.3593 
*END

*D_NET *105 0.000301585
*CONN
*I *2301:A I *D sky130_fd_sc_hd__dlygate4sd3_1
*I *2084:Y O *D sky130_fd_sc_hd__nor2_1
*CAP
1 *2301:A 7.8965e-05
2 *2084:Y 7.8965e-05
3 *2301:A *2084:B 0.000143655
*RES
1 *2084:Y *2301:A 48.0507 
*END

*D_NET *106 0.00291775
*CONN
*I *2088:A2 I *D sky130_fd_sc_hd__a21oi_1
*I *2126:B1 I *D sky130_fd_sc_hd__o21ai_0
*I *2086:Y O *D sky130_fd_sc_hd__o31ai_1
*CAP
1 *2088:A2 0
2 *2126:B1 0
3 *2086:Y 0.00111893
4 *106:30 0.0010027
5 *106:10 0.000116239
6 *106:10 *2086:B1 2.45549e-06
7 *106:10 *132:10 8.4047e-05
8 *106:10 *278:10 2.84809e-05
9 *106:30 *2086:B1 0.000182826
10 *106:30 *2189:RESET_B 9.3307e-05
11 *106:30 *272:6 5.79559e-05
12 *106:30 *277:84 0.000145685
13 *106:30 *279:90 1.5769e-05
14 *89:12 *106:10 6.93553e-05
*RES
1 *2086:Y *106:10 40.5271 
2 *106:10 *2126:B1 38 
3 *2086:Y *106:30 37.6243 
4 *106:30 *2088:A2 23 
*END

*D_NET *107 0.00165362
*CONN
*I *2307:A I *D sky130_fd_sc_hd__dlygate4sd3_1
*I *2087:Y O *D sky130_fd_sc_hd__nor2_1
*CAP
1 *2307:A 0
2 *2087:Y 0.000688498
3 *107:10 0.000688498
4 *107:10 *2062:B1 0.000230718
5 *107:10 *248:12 0
6 *107:10 *272:12 0
7 *107:10 *281:114 0
8 *107:10 *315:10 0
9 *107:10 *316:10 0
10 *107:10 *317:8 4.59027e-05
*RES
1 *2087:Y *107:10 49.4964 
2 *107:10 *2307:A 38 
*END

*D_NET *108 0.00411626
*CONN
*I *2090:B I *D sky130_fd_sc_hd__nand2_1
*I *2129:A3 I *D sky130_fd_sc_hd__a32oi_1
*I *2089:X O *D sky130_fd_sc_hd__or3_1
*CAP
1 *2090:B 0.000286881
2 *2129:A3 0.000356812
3 *2089:X 4.99221e-05
4 *108:10 0.00132656
5 *108:8 0.000732792
6 *2090:B *2090:A 7.09377e-05
7 *2090:B *2190:RESET_B 0.000178813
8 *2090:B *273:6 0.00010018
9 *2129:A3 *2128:B 3.22879e-05
10 *2129:A3 *2129:A1 5.50049e-05
11 *2129:A3 *2190:CLK 0
12 *2129:A3 *192:8 0
13 *2129:A3 *192:14 0
14 *108:10 *2061:A1 0.000326035
15 *108:10 *133:10 0
16 *108:10 *192:8 0
17 *108:10 *194:8 0.000296026
18 *108:10 *231:8 0
19 *108:10 *279:73 0
20 *2089:C *108:8 5.3304e-05
21 *69:10 *2129:A3 4.78793e-05
22 *69:10 *108:10 2.24048e-05
23 *85:34 *2129:A3 0
24 *89:12 *108:10 0.000180412
*RES
1 *2089:X *108:8 38.6214 
2 *108:8 *108:10 15.9914 
3 *108:10 *2129:A3 43.7793 
4 *108:10 *2090:B 44.5043 
*END

*D_NET *109 0.000466526
*CONN
*I *2092:A2 I *D sky130_fd_sc_hd__a21oi_1
*I *2090:Y O *D sky130_fd_sc_hd__nand2_1
*CAP
1 *2092:A2 0
2 *2090:Y 0.000141485
3 *109:10 0.000141485
4 *109:10 *2090:A 6.17437e-06
5 *109:10 *178:110 0.000135547
6 *109:10 *273:6 1.21972e-05
7 *109:10 *306:10 2.96369e-05
*RES
1 *2090:Y *109:10 40.5271 
2 *109:10 *2092:A2 38 
*END

*D_NET *110 0.00107345
*CONN
*I *2298:A I *D sky130_fd_sc_hd__dlygate4sd3_1
*I *2091:Y O *D sky130_fd_sc_hd__nor2_1
*CAP
1 *2298:A 4.75367e-05
2 *2091:Y 0.000418409
3 *110:10 0.000465946
4 *2298:A *273:25 0.000100061
5 *110:10 *2091:A 3.66555e-05
6 *110:10 *2091:B 4.84129e-06
7 *110:10 *281:29 0
*RES
1 *2091:Y *110:10 44.7736 
2 *110:10 *2298:A 39.0979 
*END

*D_NET *111 0.000424356
*CONN
*I *2284:A I *D sky130_fd_sc_hd__dlygate4sd3_1
*I *2093:Y O *D sky130_fd_sc_hd__nor2_1
*CAP
1 *2284:A 0
2 *2093:Y 0.000152875
3 *111:10 0.000152875
4 *111:10 *2093:A 2.93747e-05
5 *111:10 *253:10 0
6 *111:10 *253:25 0
7 *111:10 *274:10 4.83778e-05
8 *111:10 *290:8 4.08537e-05
*RES
1 *2093:Y *111:10 41.0036 
2 *111:10 *2284:A 38 
*END

*D_NET *112 0.00085337
*CONN
*I *2095:A2 I *D sky130_fd_sc_hd__o21ai_0
*I *2094:Y O *D sky130_fd_sc_hd__nand2_1
*CAP
1 *2095:A2 0.000131703
2 *2094:Y 0.000104412
3 *112:8 0.000236115
4 *2095:A2 *181:127 0.000231039
5 *112:8 *181:127 0.000139704
6 *112:8 *270:10 1.03972e-05
*RES
1 *2094:Y *112:8 40.2579 
2 *112:8 *2095:A2 41.0036 
*END

*D_NET *113 0.00235215
*CONN
*I *2131:A I *D sky130_fd_sc_hd__nand2_1
*I *2096:A2 I *D sky130_fd_sc_hd__a21oi_1
*I *2095:Y O *D sky130_fd_sc_hd__o21ai_0
*CAP
1 *2131:A 0
2 *2096:A2 0
3 *2095:Y 0.000307275
4 *113:20 0.000519575
5 *113:8 0.00082685
6 *113:8 *2132:A1 0.000232049
7 *113:8 *2192:RESET_B 2.97099e-05
8 *113:8 *135:8 1.36806e-05
9 *113:20 *2178:RESET_B 7.48058e-05
10 *113:20 *2192:RESET_B 5.82853e-05
11 *113:20 *275:10 0
12 *113:20 *275:23 0
13 *113:20 *282:107 1.66733e-05
14 *113:20 *282:109 5.20155e-05
15 *113:20 *282:111 6.86633e-05
16 *113:20 *292:10 3.71251e-05
17 *113:20 *330:10 5.28551e-05
18 *70:8 *113:20 6.25872e-05
*RES
1 *2095:Y *113:8 28.7586 
2 *113:8 *113:20 40.8129 
3 *113:20 *2096:A2 23 
4 *113:8 *2131:A 23 
*END

*D_NET *114 0.00261936
*CONN
*I *2098:A2 I *D sky130_fd_sc_hd__o21ai_0
*I *2131:B I *D sky130_fd_sc_hd__nand2_1
*I *2097:X O *D sky130_fd_sc_hd__or3_1
*CAP
1 *2098:A2 0.000210714
2 *2131:B 6.2505e-05
3 *2097:X 0.000580473
4 *114:8 0.000853692
5 *2098:A2 *117:21 0
6 *2098:A2 *124:110 1.358e-05
7 *2098:A2 *181:137 0.000104578
8 *2098:A2 *275:10 0.000158816
9 *2098:A2 *276:62 0.000232049
10 *2131:B *2192:RESET_B 0.000189857
11 *2131:B *275:10 1.84917e-05
12 *114:8 *117:21 0
13 *114:8 *282:113 0
14 *114:8 *282:130 5.36457e-05
15 *2122:A1 *114:8 0
16 *2122:A2 *114:8 0.000140958
*RES
1 *2097:X *114:8 48.3571 
2 *114:8 *2131:B 40.0507 
3 *114:8 *2098:A2 43.8414 
*END

*D_NET *115 0.0021384
*CONN
*I *2133:A I *D sky130_fd_sc_hd__nand2_1
*I *2100:A2 I *D sky130_fd_sc_hd__a21oi_1
*I *2098:Y O *D sky130_fd_sc_hd__o21ai_0
*CAP
1 *2133:A 0.000123829
2 *2100:A2 0.000347933
3 *2098:Y 0.000159259
4 *115:10 0.000631021
5 *2100:A2 *2100:B1 5.82853e-05
6 *2100:A2 *331:10 6.17437e-06
7 *2133:A *2178:RESET_B 2.93845e-05
8 *2133:A *116:10 0
9 *2133:A *117:21 2.42095e-05
10 *2133:A *136:8 8.07477e-05
11 *2133:A *179:87 0.000103141
12 *2133:A *179:96 5.50106e-05
13 *115:10 *2098:B1 5.796e-05
14 *115:10 *117:21 6.51997e-06
15 *115:10 *124:110 0.000102971
16 *115:10 *136:8 2.46399e-05
17 *115:10 *179:87 0.000105814
18 *115:10 *276:62 5.45644e-05
19 *115:10 *331:10 9.7473e-05
20 *57:10 *2100:A2 6.94657e-05
*RES
1 *2098:Y *115:10 42.4121 
2 *115:10 *2100:A2 44.815 
3 *115:10 *2133:A 41.9357 
*END

*D_NET *116 0.00161207
*CONN
*I *2289:A I *D sky130_fd_sc_hd__dlygate4sd3_1
*I *2099:Y O *D sky130_fd_sc_hd__nor2_1
*CAP
1 *2289:A 0
2 *2099:Y 0.000578335
3 *116:10 0.000578335
4 *116:10 *179:87 9.83799e-05
5 *116:10 *254:23 0
6 *116:10 *297:10 0.000110913
7 *2133:A *116:10 0
8 *42:204 *116:10 7.53384e-06
9 *42:215 *116:10 0.000161441
10 *57:10 *116:10 7.71291e-05
*RES
1 *2099:Y *116:10 49.02 
2 *116:10 *2289:A 38 
*END

*D_NET *117 0.00422754
*CONN
*I *2133:B I *D sky130_fd_sc_hd__nand2_1
*I *2102:A2 I *D sky130_fd_sc_hd__o21ai_0
*I *2101:X O *D sky130_fd_sc_hd__or3_1
*CAP
1 *2133:B 0
2 *2102:A2 3.00866e-05
3 *2101:X 0.000470795
4 *117:21 0.00114671
5 *117:8 0.0016476
6 *2102:A2 *2135:B 2.46933e-05
7 *2102:A2 *229:46 0
8 *117:8 *181:100 8.47306e-05
9 *117:21 *2098:B1 2.40409e-05
10 *117:21 *2135:B 4.06512e-05
11 *117:21 *2191:CLK 0
12 *117:21 *136:8 0.000300463
13 *117:21 *179:16 0
14 *117:21 *179:70 0
15 *117:21 *179:74 0
16 *117:21 *179:109 0
17 *117:21 *239:8 6.90927e-05
18 *117:21 *275:23 0
19 *117:21 *326:8 0
20 *117:21 *331:10 9.03765e-06
21 *2098:A2 *117:21 0
22 *2122:A2 *2102:A2 0
23 *2122:A2 *117:21 0
24 *2133:A *117:21 2.42095e-05
25 *101:74 *117:8 0.000348911
26 *114:8 *117:21 0
27 *115:10 *117:21 6.51997e-06
*RES
1 *2101:X *117:8 44.815 
2 *117:8 *2102:A2 38.8493 
3 *117:8 *117:21 36.9779 
4 *117:21 *2133:B 23 
*END

*D_NET *118 0.00377667
*CONN
*I *2135:A I *D sky130_fd_sc_hd__nand2_1
*I *2104:A2 I *D sky130_fd_sc_hd__a21oi_1
*I *2102:Y O *D sky130_fd_sc_hd__o21ai_0
*CAP
1 *2135:A 0
2 *2104:A2 0
3 *2102:Y 0.000214129
4 *118:29 0.00021091
5 *118:16 0.000474025
6 *118:6 0.000899064
7 *118:6 *2102:B1 0.000138444
8 *118:6 *184:10 9.84851e-05
9 *118:16 *2104:B1 5.67058e-05
10 *118:16 *2193:RESET_B 0.000310641
11 *118:16 *119:6 0.000442697
12 *118:16 *242:8 0
13 *118:16 *264:26 4.95081e-05
14 *118:16 *314:10 0.000268169
15 *118:29 *179:16 0.000247678
16 *118:29 *242:8 1.83667e-05
17 *118:29 *325:10 0
18 *2082:A2 *118:29 0.000182826
19 *2103:B *118:16 5.79559e-05
20 *42:101 *118:16 0.000107064
21 *58:10 *118:16 0
*RES
1 *2102:Y *118:6 26.9564 
2 *118:6 *118:16 42.905 
3 *118:16 *2104:A2 23 
4 *118:6 *118:29 35.365 
5 *118:29 *2135:A 23 
*END

*D_NET *119 0.00131745
*CONN
*I *2304:A I *D sky130_fd_sc_hd__dlygate4sd3_1
*I *2103:Y O *D sky130_fd_sc_hd__nor2_1
*CAP
1 *2304:A 0
2 *2103:Y 0.000124686
3 *119:6 0.000124686
4 *119:6 *264:26 0.000575996
5 *2103:B *119:6 4.93812e-05
6 *118:16 *119:6 0.000442697
*RES
1 *2103:Y *119:6 29.3386 
2 *119:6 *2304:A 23 
*END

*D_NET *120 0.00422772
*CONN
*I *2135:B I *D sky130_fd_sc_hd__nand2_1
*I *2106:A2 I *D sky130_fd_sc_hd__o21ai_0
*I *2105:Y O *D sky130_fd_sc_hd__nand4b_1
*CAP
1 *2135:B 0.000390772
2 *2106:A2 0.000239637
3 *2105:Y 0.00078719
4 *120:10 0.0014176
5 *2106:A2 *121:12 5.58003e-05
6 *2106:A2 *121:25 8.93708e-05
7 *2106:A2 *124:54 7.9085e-05
8 *2106:A2 *137:8 9.48318e-05
9 *2106:A2 *181:106 0
10 *2135:B *137:8 0.000715763
11 *2135:B *179:16 0
12 *2135:B *181:106 0
13 *2135:B *229:46 0
14 *120:10 *2105:B 4.00259e-06
15 *120:10 *2137:A1 0.000139764
16 *120:10 *124:31 0.000148555
17 *2102:A2 *2135:B 2.46933e-05
18 *117:21 *2135:B 4.06512e-05
*RES
1 *2105:Y *120:10 48.9993 
2 *120:10 *2106:A2 43.2407 
3 *120:10 *2135:B 48.3571 
*END

*D_NET *121 0.00310021
*CONN
*I *2137:B1 I *D sky130_fd_sc_hd__o21ai_0
*I *2108:A2 I *D sky130_fd_sc_hd__a21oi_1
*I *2106:Y O *D sky130_fd_sc_hd__o21ai_0
*CAP
1 *2137:B1 0
2 *2108:A2 0
3 *2106:Y 0
4 *121:25 0.000238169
5 *121:12 0.000494912
6 *121:4 0.000733081
7 *121:12 *122:10 0.000442696
8 *121:12 *125:41 0.00018471
9 *121:12 *282:202 5.18558e-05
10 *121:25 *125:41 0.000409459
11 *121:25 *138:12 0.000190828
12 *121:25 *181:106 0
13 *121:25 *282:295 1.35999e-05
14 *2106:A2 *121:12 5.58003e-05
15 *2106:A2 *121:25 8.93708e-05
16 *2107:B *121:12 0.000140135
17 *2216:A *121:25 0
18 *42:97 *121:12 5.55911e-05
*RES
1 *2106:Y *121:4 23 
2 *121:4 *121:12 41.9314 
3 *121:12 *2108:A2 23 
4 *121:4 *121:25 37.0429 
5 *121:25 *2137:B1 23 
*END

*D_NET *122 0.0017551
*CONN
*I *2295:A I *D sky130_fd_sc_hd__dlygate4sd3_1
*I *2107:Y O *D sky130_fd_sc_hd__nor2_1
*CAP
1 *2295:A 0
2 *2107:Y 0.000549521
3 *122:10 0.000549521
4 *122:10 *2107:A 2.95526e-05
5 *122:10 *125:41 0
6 *122:10 *179:32 0.000141675
7 *122:10 *184:10 0
8 *2107:B *122:10 4.21362e-05
9 *121:12 *122:10 0.000442696
*RES
1 *2107:Y *122:10 46.7207 
2 *122:10 *2295:A 38 
*END

*D_NET *123 0.000880315
*CONN
*I *2138:B1 I *D sky130_fd_sc_hd__a311oi_1
*I *2112:B I *D sky130_fd_sc_hd__or2_0
*I *2111:Y O *D sky130_fd_sc_hd__a21boi_0
*CAP
1 *2138:B1 0
2 *2112:B 0
3 *2111:Y 8.42486e-05
4 *123:21 0.000224494
5 *123:8 0.000308742
6 *123:8 *2111:A1 5.90675e-06
7 *123:8 *2111:B1_N 0.00010018
8 *123:21 *2111:B1_N 4.34745e-05
9 *123:21 *124:14 0
10 *123:21 *138:12 9.168e-05
11 *123:21 *139:8 1.14452e-05
12 *123:21 *165:27 1.01436e-05
13 *2138:A2 *123:21 0
*RES
1 *2111:Y *123:8 25.0714 
2 *123:8 *2112:B 23 
3 *123:8 *123:21 34.2879 
4 *123:21 *2138:B1 23 
*END

*D_NET *124 0.0154244
*CONN
*I *2134:A2 I *D sky130_fd_sc_hd__a22o_1
*I *2132:A2 I *D sky130_fd_sc_hd__a22o_1
*I *2121:A2 I *D sky130_fd_sc_hd__a22o_1
*I *2123:A2 I *D sky130_fd_sc_hd__a22o_1
*I *2139:A2 I *D sky130_fd_sc_hd__a21oi_1
*I *2136:A2 I *D sky130_fd_sc_hd__a22o_1
*I *2339:A I *D sky130_fd_sc_hd__buf_4
*I *2112:X O *D sky130_fd_sc_hd__or2_0
*CAP
1 *2134:A2 4.75657e-05
2 *2132:A2 0
3 *2121:A2 0
4 *2123:A2 5.8605e-05
5 *2139:A2 0
6 *2136:A2 0.000112267
7 *2339:A 1.49942e-05
8 *2112:X 0.000205612
9 *124:110 0.000861457
10 *124:93 0.000880532
11 *124:86 0.00081131
12 *124:76 0.00118903
13 *124:61 0.000800662
14 *124:54 0.00036319
15 *124:31 0.000893811
16 *124:25 0.00128662
17 *124:14 0.000657893
18 *2134:A2 *2134:A1 0.000323904
19 *2134:A2 *276:62 0.000323904
20 *2339:A *2138:A1 5.50106e-05
21 *2339:A *2138:C1 5.50049e-05
22 *124:14 *2140:C 0.00010018
23 *124:14 *219:33 1.75666e-05
24 *124:25 *138:12 0
25 *124:25 *179:59 7.59861e-05
26 *124:25 *218:10 0.000143166
27 *124:25 *219:33 0.000333563
28 *124:31 *2137:A1 7.44257e-05
29 *124:54 *125:41 0.000110718
30 *124:54 *137:8 1.01436e-05
31 *124:54 *184:10 1.47563e-05
32 *124:54 *200:22 6.40115e-05
33 *124:54 *304:8 2.14486e-05
34 *124:61 *2097:A 3.46241e-05
35 *124:61 *2123:B1 1.93489e-05
36 *124:61 *2137:A1 1.02387e-05
37 *124:61 *157:36 5.76076e-05
38 *124:61 *179:59 0.000141212
39 *124:61 *219:33 0.000137163
40 *124:61 *219:50 0.00010403
41 *124:76 *2123:B1 0.000590722
42 *124:76 *2187:RESET_B 6.48049e-05
43 *124:76 *189:8 0
44 *124:76 *276:46 5.2952e-05
45 *124:76 *282:113 0.000238985
46 *124:86 *276:25 2.26406e-05
47 *124:86 *276:33 0.00121284
48 *124:93 *276:46 0.000151411
49 *124:93 *276:62 2.76401e-05
50 *124:93 *282:111 3.67392e-05
51 *124:93 *282:113 0.000140337
52 *124:110 *179:87 3.49086e-05
53 *124:110 *181:137 0.000572928
54 *124:110 *276:62 0.000198022
55 *124:110 *282:111 0.000154003
56 *2098:A2 *124:110 1.358e-05
57 *2106:A2 *124:54 7.9085e-05
58 *2122:A1 *2123:A2 5.02657e-05
59 *2122:A1 *124:76 6.41631e-05
60 *2138:A2 *124:14 0.000111852
61 *2145:B *124:61 0.000259986
62 *2322:A *124:110 9.79925e-05
63 *4:8 *124:86 0
64 *42:191 *124:110 0
65 *72:8 *2136:A2 5.37001e-05
66 *72:8 *124:31 0.000352426
67 *88:26 *2123:A2 1.01436e-05
68 *88:26 *124:61 0.00014652
69 *99:27 *124:86 2.26406e-05
70 *100:34 *124:61 0
71 *115:10 *124:110 0.000102971
72 *120:10 *124:31 0.000148555
73 *123:21 *124:14 0
*RES
1 *2112:X *124:14 42.1221 
2 *124:14 *2339:A 38.6214 
3 *124:14 *124:25 11.0614 
4 *124:25 *124:31 24.2179 
5 *124:31 *2136:A2 25.8586 
6 *124:31 *124:54 37.3536 
7 *124:54 *2139:A2 23 
8 *124:25 *124:61 12.2939 
9 *124:61 *2123:A2 39.2946 
10 *124:61 *124:76 9.21786 
11 *124:76 *124:86 33.7813 
12 *124:86 *2121:A2 23 
13 *124:76 *124:93 2.43393 
14 *124:93 *2132:A2 38 
15 *124:93 *124:110 43.6093 
16 *124:110 *2134:A2 41.48 
*END

*D_NET *125 0.00966002
*CONN
*I *2136:B1 I *D sky130_fd_sc_hd__a22o_1
*I *2338:A I *D sky130_fd_sc_hd__clkbuf_2
*I *2113:Y O *D sky130_fd_sc_hd__nor3b_1
*CAP
1 *2136:B1 0
2 *2338:A 0.000291721
3 *2113:Y 0.000275974
4 *125:41 0.00121491
5 *125:33 0.00203494
6 *125:14 0.00133451
7 *125:12 0.000498728
8 *2338:A *2257:A 0.000193739
9 *125:12 *2042:A 6.16439e-05
10 *125:12 *2051:B 1.36134e-05
11 *125:12 *159:38 0.000205642
12 *125:12 *161:14 1.01107e-05
13 *125:12 *344:21 0.000260144
14 *125:14 *2051:B 0
15 *125:14 *161:8 0.000222509
16 *125:14 *161:14 0.000224858
17 *125:14 *162:14 0
18 *125:33 *161:8 0.000350014
19 *125:33 *170:10 1.00084e-05
20 *125:33 *213:8 0.000182213
21 *125:33 *217:10 9.41704e-05
22 *125:33 *222:16 1.6891e-05
23 *125:33 *222:28 0.000763377
24 *125:33 *222:37 3.0983e-05
25 *125:33 *282:409 2.83509e-05
26 *125:41 *2196:RESET_B 0.000442206
27 *125:41 *184:10 1.14452e-05
28 *125:41 *282:295 3.76959e-05
29 *125:41 *282:409 4.88664e-05
30 *85:34 *125:12 9.5877e-05
31 *121:12 *125:41 0.00018471
32 *121:25 *125:41 0.000409459
33 *122:10 *125:41 0
34 *124:54 *125:41 0.000110718
*RES
1 *2113:Y *125:12 44.3904 
2 *125:12 *125:14 5.95536 
3 *125:14 *2338:A 43.3857 
4 *125:14 *125:33 47.8557 
5 *125:33 *125:41 47.8971 
6 *125:41 *2136:B1 38 
*END

*D_NET *126 0.000733541
*CONN
*I *2115:B2 I *D sky130_fd_sc_hd__a22o_1
*I *2114:Y O *D sky130_fd_sc_hd__nand2_1
*CAP
1 *2115:B2 0
2 *2114:Y 0.000171673
3 *126:10 0.000171673
4 *126:10 *278:10 0.000111106
5 *126:10 *279:73 1.13812e-05
6 *126:10 *279:90 0.000126363
7 *2114:A *126:10 0.000141344
*RES
1 *2114:Y *126:10 41.48 
2 *126:10 *2115:B2 38 
*END

*D_NET *127 0.000502877
*CONN
*I *2117:B2 I *D sky130_fd_sc_hd__a22o_1
*I *2116:Y O *D sky130_fd_sc_hd__nand2_1
*CAP
1 *2117:B2 0.000122349
2 *2116:Y 0.000122349
3 *2117:B2 *2186:RESET_B 6.17437e-06
4 *2117:B2 *2337:A 5.45541e-05
5 *2117:B2 *276:10 0.000100486
6 *2117:B2 *279:124 9.69655e-05
*RES
1 *2116:Y *2117:B2 49.5007 
*END

*D_NET *128 0.000259588
*CONN
*I *2119:B2 I *D sky130_fd_sc_hd__a22o_1
*I *2118:Y O *D sky130_fd_sc_hd__nand2_1
*CAP
1 *2119:B2 6.77847e-05
2 *2118:Y 6.77847e-05
3 *2119:B2 *276:25 0.000102216
4 *2118:A *2119:B2 2.18032e-05
*RES
1 *2118:Y *2119:B2 47.595 
*END

*D_NET *129 0.000284342
*CONN
*I *2121:B2 I *D sky130_fd_sc_hd__a22o_1
*I *2120:Y O *D sky130_fd_sc_hd__o21ai_0
*CAP
1 *2121:B2 7.92678e-05
2 *2120:Y 7.92678e-05
3 *2121:B2 *2121:B1 1.75562e-05
4 *2121:B2 *161:46 9.82009e-05
5 *100:49 *2121:B2 1.00493e-05
*RES
1 *2120:Y *2121:B2 47.9471 
*END

*D_NET *130 0.00140887
*CONN
*I *2123:B2 I *D sky130_fd_sc_hd__a22o_1
*I *2122:Y O *D sky130_fd_sc_hd__o21ai_0
*CAP
1 *2123:B2 0
2 *2122:Y 0.000404446
3 *130:10 0.000404446
4 *130:10 *2123:B1 0.000161121
5 *130:10 *179:12 0.000389766
6 *130:10 *188:8 4.90891e-05
*RES
1 *2122:Y *130:10 44.6907 
2 *130:10 *2123:B2 38 
*END

*D_NET *131 0.000138225
*CONN
*I *2125:B2 I *D sky130_fd_sc_hd__a22o_1
*I *2124:Y O *D sky130_fd_sc_hd__o21ai_0
*CAP
1 *2125:B2 6.21412e-05
2 *2124:Y 6.21412e-05
3 *89:25 *2125:B2 1.39431e-05
*RES
1 *2124:Y *2125:B2 47.1186 
*END

*D_NET *132 0.000592086
*CONN
*I *2127:B2 I *D sky130_fd_sc_hd__a22o_1
*I *2126:Y O *D sky130_fd_sc_hd__o21ai_0
*CAP
1 *2127:B2 0
2 *2126:Y 0.00015558
3 *132:10 0.00015558
4 *132:10 *278:10 0.000169674
5 *89:12 *132:10 2.72055e-05
6 *106:10 *132:10 8.4047e-05
*RES
1 *2126:Y *132:10 41.3557 
2 *132:10 *2127:B2 38 
*END

*D_NET *133 0.00171406
*CONN
*I *2224:A I *D sky130_fd_sc_hd__dlygate4sd3_1
*I *2128:Y O *D sky130_fd_sc_hd__nand2_1
*CAP
1 *2224:A 0
2 *2128:Y 0.000550988
3 *133:10 0.000550988
4 *133:10 *2092:A1 0
5 *133:10 *2129:A1 1.32314e-05
6 *133:10 *2190:RESET_B 0
7 *133:10 *192:8 0.000222123
8 *133:10 *192:14 0.000310347
9 *133:10 *279:73 6.63801e-05
10 *108:10 *133:10 0
*RES
1 *2128:Y *133:10 48.5436 
2 *133:10 *2224:A 38 
*END

*D_NET *134 0.000908237
*CONN
*I *2130:A3 I *D sky130_fd_sc_hd__o31ai_1
*I *2129:Y O *D sky130_fd_sc_hd__a32oi_1
*CAP
1 *2130:A3 0
2 *2129:Y 0.000228817
3 *134:10 0.000228817
4 *134:10 *2128:B 0.000138727
5 *134:10 *161:14 2.98648e-05
6 *134:10 *222:136 0.000141052
7 *134:10 *280:14 0.000140958
*RES
1 *2129:Y *134:10 42.4329 
2 *134:10 *2130:A3 38 
*END

*D_NET *135 0.000749413
*CONN
*I *2132:B2 I *D sky130_fd_sc_hd__a22o_1
*I *2131:Y O *D sky130_fd_sc_hd__nand2_1
*CAP
1 *2132:B2 0
2 *2131:Y 0.000290601
3 *135:8 0.000290601
4 *135:8 *2132:A1 5.40522e-05
5 *135:8 *2192:RESET_B 0.000100477
6 *113:8 *135:8 1.36806e-05
*RES
1 *2131:Y *135:8 27.3293 
2 *135:8 *2132:B2 23 
*END

*D_NET *136 0.00252852
*CONN
*I *2134:B2 I *D sky130_fd_sc_hd__a22o_1
*I *2133:Y O *D sky130_fd_sc_hd__nand2_1
*CAP
1 *2134:B2 0.000586911
2 *2133:Y 0.000116389
3 *136:8 0.0007033
4 *2134:B2 *2134:A1 0.000584382
5 *2134:B2 *276:62 4.80663e-05
6 *136:8 *331:10 8.36198e-05
7 *2133:A *136:8 8.07477e-05
8 *115:10 *136:8 2.46399e-05
9 *117:21 *136:8 0.000300463
*RES
1 *2133:Y *136:8 42.0186 
2 *136:8 *2134:B2 47.0936 
*END

*D_NET *137 0.00173506
*CONN
*I *2136:B2 I *D sky130_fd_sc_hd__a22o_1
*I *2135:Y O *D sky130_fd_sc_hd__nand2_1
*CAP
1 *2136:B2 0
2 *2135:Y 0.000313606
3 *137:8 0.000313606
4 *137:8 *179:16 0
5 *137:8 *184:10 0.000145236
6 *137:8 *264:10 0.000141869
7 *2106:A2 *137:8 9.48318e-05
8 *2135:B *137:8 0.000715763
9 *124:54 *137:8 1.01436e-05
*RES
1 *2135:Y *137:8 48.7093 
2 *137:8 *2136:B2 38 
*END

*D_NET *138 0.00211361
*CONN
*I *2138:A3 I *D sky130_fd_sc_hd__a311oi_1
*I *2137:Y O *D sky130_fd_sc_hd__o21ai_0
*CAP
1 *2138:A3 0
2 *2137:Y 0
3 *138:12 0.000517196
4 *138:6 0.000517196
5 *138:12 *2138:A1 0.00010018
6 *138:12 *2138:C1 0.00014196
7 *138:12 *139:8 9.86992e-05
8 *138:12 *179:59 6.08879e-05
9 *138:12 *282:295 0.000355743
10 *2216:A *138:12 0
11 *100:14 *138:12 3.92407e-05
12 *121:25 *138:12 0.000190828
13 *123:21 *138:12 9.168e-05
14 *124:25 *138:12 0
*RES
1 *2137:Y *138:6 38 
2 *138:6 *138:12 28.6921 
3 *138:12 *2138:A3 23 
*END

*D_NET *139 0.00095024
*CONN
*I *2139:B1 I *D sky130_fd_sc_hd__a21oi_1
*I *2138:Y O *D sky130_fd_sc_hd__a311oi_1
*CAP
1 *2139:B1 0.0001629
2 *2138:Y 0.000201595
3 *139:8 0.000364494
4 *139:8 *201:10 0
5 *139:8 *282:295 0.000111106
6 *123:21 *139:8 1.14452e-05
7 *138:12 *139:8 9.86992e-05
*RES
1 *2138:Y *139:8 42.3707 
2 *139:8 *2139:B1 40.5271 
*END

*D_NET *140 0.00590118
*CONN
*I *2144:B I *D sky130_fd_sc_hd__nor2_1
*I *2147:A2 I *D sky130_fd_sc_hd__a21oi_1
*I *2149:A1 I *D sky130_fd_sc_hd__a21oi_1
*I *2142:B1 I *D sky130_fd_sc_hd__o21ai_0
*I *2143:A2 I *D sky130_fd_sc_hd__o22a_1
*I *2150:B1 I *D sky130_fd_sc_hd__o21ai_0
*I *2140:Y O *D sky130_fd_sc_hd__nor3_1
*CAP
1 *2144:B 0.000190768
2 *2147:A2 0
3 *2149:A1 8.09194e-05
4 *2142:B1 0.000201808
5 *2143:A2 0
6 *2150:B1 3.51849e-05
7 *2140:Y 0.000203564
8 *140:62 0.000794995
9 *140:43 0.0010712
10 *140:26 0.00061961
11 *140:19 0.000231995
12 *140:6 0.000438993
13 *2142:B1 *2143:B1 5.05721e-05
14 *2142:B1 *2143:B2 4.94499e-05
15 *2142:B1 *159:8 1.46552e-06
16 *2144:B *2078:B 1.05259e-05
17 *2144:B *2105:A_N 3.64337e-05
18 *2144:B *2147:B1 3.50004e-06
19 *2144:B *143:8 4.67488e-05
20 *2144:B *145:8 0.000100069
21 *2144:B *160:10 5.58975e-06
22 *2144:B *229:90 2.42715e-05
23 *2149:A1 *145:14 0.000100069
24 *2150:B1 *161:31 5.12055e-06
25 *140:6 *2140:A 2.93845e-05
26 *140:6 *147:10 2.95441e-05
27 *140:19 *147:10 2.98475e-06
28 *140:19 *213:47 1.30606e-05
29 *140:43 *207:98 3.41998e-06
30 *140:43 *213:47 0
31 *140:43 *214:10 6.70389e-05
32 *140:43 *219:16 0
33 *140:43 *222:16 0.000650298
34 *140:62 *2069:A_N 6.17437e-06
35 *140:62 *2105:A_N 2.72445e-06
36 *140:62 *143:8 5.61255e-06
37 *140:62 *145:8 0.000138167
38 *140:62 *160:10 3.6228e-05
39 *140:62 *222:16 0.000206306
40 *140:62 *222:37 0.000160348
41 *140:62 *222:58 0.00021039
42 *4:10 *140:43 0
43 *76:8 *2149:A1 3.66555e-05
*RES
1 *2140:Y *140:6 25.5271 
2 *140:6 *2150:B1 23.8493 
3 *140:6 *140:19 3.16929 
4 *140:19 *2143:A2 23 
5 *140:19 *140:26 0.621429 
6 *140:26 *2142:B1 26.9098 
7 *140:26 *140:43 23.9486 
8 *140:43 *2149:A1 40.0507 
9 *140:43 *140:62 41.1443 
10 *140:62 *2147:A2 38 
11 *140:62 *2144:B 41.6871 
*END

*D_NET *141 0.000285678
*CONN
*I *2146:A1 I *D sky130_fd_sc_hd__a21oi_1
*I *2141:Y O *D sky130_fd_sc_hd__nor3_1
*CAP
1 *2146:A1 0
2 *2141:Y 0.00010196
3 *141:8 0.00010196
4 *141:8 *144:10 1.13812e-05
5 *141:8 *177:109 7.03766e-05
6 *141:8 *219:33 0
7 *141:8 *222:16 0
*RES
1 *2141:Y *141:8 40.2579 
2 *141:8 *2146:A1 38 
*END

*D_NET *142 0.000302452
*CONN
*I *2143:B1 I *D sky130_fd_sc_hd__o22a_1
*I *2142:Y O *D sky130_fd_sc_hd__o21ai_0
*CAP
1 *2143:B1 8.22951e-05
2 *2142:Y 8.22951e-05
3 *2143:B1 *2143:B2 2.93341e-05
4 *2142:B1 *2143:B1 5.05721e-05
5 *74:10 *2143:B1 5.79559e-05
*RES
1 *2142:Y *2143:B1 48.698 
*END

*D_NET *143 0.00399026
*CONN
*I *2245:A I *D sky130_fd_sc_hd__dlygate4sd3_1
*I *2144:Y O *D sky130_fd_sc_hd__nor2_1
*CAP
1 *2245:A 0.00028345
2 *2144:Y 0.000382927
3 *143:8 0.000666376
4 *2245:A *2069:A_N 0.000150977
5 *2245:A *2197:RESET_B 4.85126e-05
6 *2245:A *175:47 1.34354e-05
7 *2245:A *213:58 0.000191439
8 *2245:A *222:28 0.000267768
9 *2245:A *282:409 0.000267768
10 *143:8 *2069:A_N 3.3345e-05
11 *143:8 *2069:B 0.00049993
12 *143:8 *2078:B 4.49877e-05
13 *143:8 *145:8 3.54603e-05
14 *143:8 *160:14 5.56279e-05
15 *143:8 *221:10 5.50049e-05
16 *2144:B *143:8 4.67488e-05
17 *2249:A *2245:A 0.000391685
18 *93:50 *143:8 0.000449764
19 *100:6 *143:8 9.94357e-05
20 *140:62 *143:8 5.61255e-06
*RES
1 *2144:Y *143:8 48.6264 
2 *143:8 *2245:A 47.135 
*END

*D_NET *144 0.00143511
*CONN
*I *2146:A2 I *D sky130_fd_sc_hd__a21oi_1
*I *2145:Y O *D sky130_fd_sc_hd__nand3_1
*CAP
1 *2146:A2 0
2 *2145:Y 0.000493425
3 *144:10 0.000493425
4 *144:10 *2105:C 9.168e-05
5 *144:10 *2137:A1 0
6 *144:10 *2144:A 0.000102629
7 *144:10 *145:14 0.000208887
8 *144:10 *219:33 0
9 *75:10 *144:10 2.84201e-05
10 *100:14 *144:10 5.26733e-06
11 *141:8 *144:10 1.13812e-05
*RES
1 *2145:Y *144:10 48.9786 
2 *144:10 *2146:A2 38 
*END

*D_NET *145 0.00295565
*CONN
*I *2149:B1 I *D sky130_fd_sc_hd__a21oi_1
*I *2147:Y O *D sky130_fd_sc_hd__a21oi_1
*CAP
1 *2149:B1 0
2 *2147:Y 0.00018482
3 *145:14 0.000713326
4 *145:8 0.000898146
5 *145:8 *2078:B 9.88259e-05
6 *145:8 *160:14 2.1819e-05
7 *145:14 *2105:A_N 0.000191157
8 *145:14 *2105:C 8.62783e-05
9 *145:14 *2144:A 0.000141888
10 *145:14 *170:10 0
11 *2144:B *145:8 0.000100069
12 *2149:A1 *145:14 0.000100069
13 *75:10 *145:14 3.67392e-05
14 *140:62 *145:8 0.000138167
15 *143:8 *145:8 3.54603e-05
16 *144:10 *145:14 0.000208887
*RES
1 *2147:Y *145:8 41.9564 
2 *145:8 *145:14 28.9821 
3 *145:14 *2149:B1 23 
*END

*D_NET *146 0.00154186
*CONN
*I *2248:A I *D sky130_fd_sc_hd__dlygate4sd3_1
*I *2148:Y O *D sky130_fd_sc_hd__nand2_1
*CAP
1 *2248:A 5.68323e-05
2 *2148:Y 0.000384407
3 *146:10 0.000441239
4 *2248:A *2105:B 0.000225399
5 *2248:A *216:30 0.000223704
6 *146:10 *180:87 3.26723e-05
7 *146:10 *219:50 4.4859e-06
8 *4:10 *146:10 0.000170665
9 *88:18 *146:10 2.45032e-06
*RES
1 *2148:Y *146:10 44.2971 
2 *146:10 *2248:A 40.5271 
*END

*D_NET *147 0.00195851
*CONN
*I *2151:B1 I *D sky130_fd_sc_hd__a32o_1
*I *2150:Y O *D sky130_fd_sc_hd__o21ai_0
*CAP
1 *2151:B1 8.75684e-06
2 *2150:Y 0.00042224
3 *147:10 0.000430997
4 *2151:B1 *282:351 2.55176e-05
5 *147:10 *2043:A 0.000117592
6 *147:10 *2141:B 4.6318e-06
7 *147:10 *177:99 0
8 *147:10 *177:109 0.000450897
9 *147:10 *207:48 1.14452e-05
10 *147:10 *207:57 0.000277705
11 *147:10 *207:98 0.000164291
12 *2057:C1 *2151:B1 1.19077e-05
13 *140:6 *147:10 2.95441e-05
14 *140:19 *147:10 2.98475e-06
*RES
1 *2150:Y *147:10 48.875 
2 *147:10 *2151:B1 38.2796 
*END

*D_NET *148 0.0048493
*CONN
*I *2158:C I *D sky130_fd_sc_hd__nand3_1
*I *2163:B2 I *D sky130_fd_sc_hd__o22a_1
*I *2161:A2 I *D sky130_fd_sc_hd__a21oi_1
*I *2154:A2 I *D sky130_fd_sc_hd__a21bo_1
*I *2153:C I *D sky130_fd_sc_hd__nand3_1
*I *2160:A I *D sky130_fd_sc_hd__nor2_1
*I *2152:X O *D sky130_fd_sc_hd__or2_0
*CAP
1 *2158:C 0.000152679
2 *2163:B2 0.000210799
3 *2161:A2 0
4 *2154:A2 9.49259e-05
5 *2153:C 0
6 *2160:A 3.34522e-05
7 *2152:X 0.000147027
8 *148:50 0.000381885
9 *148:43 1.84073e-05
10 *148:20 0.000308703
11 *148:14 0.000489266
12 *148:10 0.000266116
13 *2154:A2 *2154:A1 0.000179725
14 *2154:A2 *2252:A 5.3304e-05
15 *2154:A2 *150:14 1.87044e-05
16 *2158:C *2046:B 5.31934e-05
17 *2158:C *2156:A 0.000187129
18 *2158:C *164:10 0.000230604
19 *2158:C *198:61 5.50049e-05
20 *2158:C *203:29 0.000124934
21 *2158:C *280:72 5.3304e-05
22 *2163:B2 *2046:B 9.31593e-05
23 *2163:B2 *2163:A1 4.00259e-06
24 *2163:B2 *280:72 5.50049e-05
25 *2163:B2 *327:21 2.93845e-05
26 *148:10 *164:10 0
27 *148:10 *177:18 7.80354e-05
28 *148:10 *280:72 6.16439e-05
29 *148:14 *151:10 0.000138514
30 *148:14 *177:18 0.000208656
31 *148:14 *280:72 3.46954e-05
32 *148:20 *2153:A 7.67782e-06
33 *148:20 *2153:B 1.90939e-05
34 *148:20 *2160:B 0.000405124
35 *148:20 *151:10 0.00017752
36 *148:20 *154:12 4.71226e-05
37 *148:20 *177:18 0.000212121
38 *148:20 *177:22 0.000218382
39 *148:50 *2163:A1 0
*RES
1 *2152:X *148:10 40.8793 
2 *148:10 *148:14 3.58357 
3 *148:14 *148:20 23.7414 
4 *148:20 *2160:A 23.6214 
5 *148:20 *2153:C 23 
6 *148:14 *2154:A2 40.0507 
7 *148:10 *148:43 15 
8 *148:43 *2161:A2 23 
9 *148:43 *148:50 0.497143 
10 *148:50 *2163:B2 26.9771 
11 *148:50 *2158:C 28.3857 
*END

*D_NET *149 0.000471351
*CONN
*I *2155:B1 I *D sky130_fd_sc_hd__o21ai_0
*I *2153:Y O *D sky130_fd_sc_hd__nand3_1
*CAP
1 *2155:B1 0
2 *2153:Y 0.00011634
3 *149:10 0.00011634
4 *149:10 *2153:A 1.05235e-05
5 *149:10 *2155:A2 0.000141869
6 *149:10 *152:10 8.62783e-05
7 *149:10 *198:14 0
*RES
1 *2153:Y *149:10 40.5271 
2 *149:10 *2155:B1 38 
*END

*D_NET *150 0.00264399
*CONN
*I *2159:A1 I *D sky130_fd_sc_hd__o21ai_0
*I *2155:A2 I *D sky130_fd_sc_hd__o21ai_0
*I *2154:X O *D sky130_fd_sc_hd__a21bo_1
*CAP
1 *2159:A1 0
2 *2155:A2 0.000176905
3 *2154:X 0.000484372
4 *150:14 0.000661277
5 *2155:A2 *152:10 5.15204e-05
6 *2155:A2 *205:10 6.02277e-06
7 *150:14 *2154:A1 2.69767e-05
8 *150:14 *2160:B 5.61424e-05
9 *150:14 *2252:A 2.64616e-05
10 *150:14 *151:10 6.5117e-06
11 *150:14 *205:10 0.000278679
12 *150:14 *224:10 0.000218688
13 *150:14 *280:38 0.000111763
14 *150:14 *280:55 2.97099e-05
15 *2154:A2 *150:14 1.87044e-05
16 *78:10 *2155:A2 0.000311998
17 *78:10 *150:14 3.63874e-05
18 *149:10 *2155:A2 0.000141869
*RES
1 *2154:X *150:14 49.5379 
2 *150:14 *2155:A2 43.51 
3 *150:14 *2159:A1 38 
*END

*D_NET *151 0.00288899
*CONN
*I *2162:A2 I *D sky130_fd_sc_hd__a21boi_0
*I *2160:B I *D sky130_fd_sc_hd__nor2_1
*I *2156:Y O *D sky130_fd_sc_hd__nor2_1
*CAP
1 *2162:A2 0.000196335
2 *2160:B 0.000313724
3 *2156:Y 0.000237673
4 *151:10 0.000747732
5 *2160:B *154:12 2.93747e-05
6 *2160:B *224:10 2.8133e-05
7 *2162:A2 *2162:A1 5.82853e-05
8 *2162:A2 *2164:CLK 9.41704e-05
9 *151:10 *2046:B 4.96717e-05
10 *151:10 *224:10 5.27824e-05
11 *151:10 *280:72 0.000111764
12 *78:10 *2160:B 0.000185538
13 *148:14 *151:10 0.000138514
14 *148:20 *2160:B 0.000405124
15 *148:20 *151:10 0.00017752
16 *150:14 *2160:B 5.61424e-05
17 *150:14 *151:10 6.5117e-06
*RES
1 *2156:Y *151:10 43.4686 
2 *151:10 *2160:B 46.4721 
3 *151:10 *2162:A2 41.0036 
*END

*D_NET *152 0.000736694
*CONN
*I *2159:A2 I *D sky130_fd_sc_hd__o21ai_0
*I *2157:X O *D sky130_fd_sc_hd__xor2_1
*CAP
1 *2159:A2 0
2 *2157:X 0.000251196
3 *152:10 0.000251196
4 *152:10 *2155:A1 7.88828e-05
5 *152:10 *2157:B 6.17437e-06
6 *152:10 *198:14 0
7 *152:10 *205:10 1.14452e-05
8 *2155:A2 *152:10 5.15204e-05
9 *149:10 *152:10 8.62783e-05
*RES
1 *2157:X *152:10 42.4329 
2 *152:10 *2159:A2 38 
*END

*D_NET *153 0.000327748
*CONN
*I *2234:A I *D sky130_fd_sc_hd__dlygate4sd3_1
*I *2158:Y O *D sky130_fd_sc_hd__nand3_1
*CAP
1 *2234:A 0
2 *2158:Y 9.00871e-05
3 *153:8 9.00871e-05
4 *153:8 *2158:B 0.000110843
5 *153:8 *280:51 3.673e-05
*RES
1 *2158:Y *153:8 39.9057 
2 *153:8 *2234:A 38 
*END

*D_NET *154 0.00191539
*CONN
*I *2161:B1 I *D sky130_fd_sc_hd__a21oi_1
*I *2160:Y O *D sky130_fd_sc_hd__nor2_1
*CAP
1 *2161:B1 0.000109425
2 *2160:Y 0.000382755
3 *154:12 0.00049218
4 *2161:B1 *156:8 0
5 *2161:B1 *177:18 0.000203333
6 *2161:B1 *327:21 7.97417e-05
7 *154:12 *168:10 0.000354588
8 *154:12 *177:18 1.25922e-05
9 *154:12 *177:22 2.56377e-05
10 *154:12 *327:21 0.000178641
11 *154:12 *345:12 0
12 *2160:B *154:12 2.93747e-05
13 *148:20 *154:12 4.71226e-05
*RES
1 *2160:Y *154:12 47.3111 
2 *154:12 *2161:B1 40.7861 
*END

*D_NET *155 0.000216237
*CONN
*I *2163:A2 I *D sky130_fd_sc_hd__o22a_1
*I *2161:Y O *D sky130_fd_sc_hd__a21oi_1
*CAP
1 *2163:A2 8.25057e-05
2 *2161:Y 8.25057e-05
3 *2163:A2 *2046:B 2.18409e-05
4 *2163:A2 *327:21 2.93845e-05
*RES
1 *2161:Y *2163:A2 47.0979 
*END

*D_NET *156 0.000635524
*CONN
*I *2163:B1 I *D sky130_fd_sc_hd__o22a_1
*I *2162:Y O *D sky130_fd_sc_hd__a21boi_0
*CAP
1 *2163:B1 0
2 *2162:Y 0.00016438
3 *156:8 0.00016438
4 *156:8 *2162:B1_N 4.11274e-05
5 *156:8 *207:10 0.000154244
6 *156:8 *327:21 0.000111392
7 *2161:B1 *156:8 0
*RES
1 *2162:Y *156:8 43.075 
2 *156:8 *2163:B1 38 
*END

*D_NET *157 0.00426995
*CONN
*I *2097:A I *D sky130_fd_sc_hd__or3_1
*I *2101:A I *D sky130_fd_sc_hd__or3_1
*I *2137:A1 I *D sky130_fd_sc_hd__o21ai_0
*I *2079:A I *D sky130_fd_sc_hd__nand2_1
*I *2036:Y O *D sky130_fd_sc_hd__inv_1
*CAP
1 *2097:A 0.00041524
2 *2101:A 0
3 *2137:A1 0.000396043
4 *2079:A 4.00628e-05
5 *2036:Y 2.01997e-05
6 *157:36 0.000545142
7 *157:23 0.000525945
8 *157:21 0.000203107
9 *157:6 0.000263369
10 *2079:A *229:32 2.64616e-05
11 *2097:A *2123:A1 0
12 *2097:A *181:100 0.000265472
13 *2137:A1 *2144:A 0
14 *2137:A1 *219:33 0.000219882
15 *2137:A1 *219:50 0.000216712
16 *157:6 *229:32 1.08234e-05
17 *157:21 *219:50 0.000267173
18 *157:21 *222:58 0
19 *157:21 *222:71 4.6318e-06
20 *2082:A2 *2097:A 5.24325e-05
21 *2097:C *2097:A 2.32004e-05
22 *2101:C *2097:A 0
23 *2101:C *2137:A1 0
24 *2101:C *157:36 0
25 *2145:C *2137:A1 0
26 *88:18 *157:21 0.000265466
27 *100:34 *2097:A 0
28 *100:34 *157:21 0.000185755
29 *101:74 *2079:A 6.17437e-06
30 *120:10 *2137:A1 0.000139764
31 *124:31 *2137:A1 7.44257e-05
32 *124:61 *2097:A 3.46241e-05
33 *124:61 *2137:A1 1.02387e-05
34 *124:61 *157:36 5.76076e-05
35 *144:10 *2137:A1 0
*RES
1 *2036:Y *157:6 23.3832 
2 *157:6 *2079:A 23.6214 
3 *157:6 *157:21 35.6136 
4 *157:21 *157:23 15 
5 *157:23 *2137:A1 47.135 
6 *157:23 *157:36 2.61 
7 *157:36 *2101:A 38 
8 *157:36 *2097:A 44.7114 
*END

*D_NET *158 9.77951e-05
*CONN
*I *2231:A I *D sky130_fd_sc_hd__dlygate4sd3_1
*I *2037:Y O *D sky130_fd_sc_hd__inv_1
*CAP
1 *2231:A 3.2969e-05
2 *2037:Y 3.2969e-05
3 *2231:A *200:22 3.18571e-05
*RES
1 *2037:Y *2231:A 46.8596 
*END

*D_NET *159 0.00376256
*CONN
*I *2130:A1 I *D sky130_fd_sc_hd__o31ai_1
*I *2113:A I *D sky130_fd_sc_hd__nor3b_1
*I *2042:A I *D sky130_fd_sc_hd__nor2_2
*I *2142:A2 I *D sky130_fd_sc_hd__o21ai_0
*I *2150:A1 I *D sky130_fd_sc_hd__o21ai_0
*I *2038:Y O *D sky130_fd_sc_hd__inv_1
*CAP
1 *2130:A1 9.63528e-05
2 *2113:A 0
3 *2042:A 9.43906e-05
4 *2142:A2 0
5 *2150:A1 0
6 *2038:Y 0
7 *159:49 9.63528e-05
8 *159:38 0.000463372
9 *159:22 0.000366757
10 *159:8 0.000459875
11 *159:4 0.000462099
12 *2042:A *2051:B 9.88678e-05
13 *2042:A *344:21 6.67764e-05
14 *2130:A1 *2113:B 5.03677e-05
15 *2130:A1 *279:41 9.58714e-05
16 *2130:A1 *280:6 2.37061e-05
17 *159:8 *219:16 9.34933e-05
18 *159:22 *2142:A1 2.26406e-05
19 *159:22 *213:47 8.34173e-05
20 *159:22 *222:16 9.85586e-06
21 *159:38 *2038:A 2.96912e-05
22 *159:38 *2051:B 8.28897e-05
23 *159:38 *2113:B 2.11066e-05
24 *159:38 *219:6 2.18409e-05
25 *159:38 *219:16 2.33926e-05
26 *159:38 *219:85 4.5051e-05
27 *2113:C_N *2130:A1 5.90675e-06
28 *2142:B1 *159:8 1.46552e-06
29 *42:27 *159:22 0.0004607
30 *85:34 *2130:A1 0.000219032
31 *125:12 *2042:A 6.16439e-05
32 *125:12 *159:38 0.000205642
*RES
1 *2038:Y *159:4 23 
2 *159:4 *159:8 2.30964 
3 *159:8 *159:22 47.5568 
4 *159:22 *2150:A1 23 
5 *159:8 *2142:A2 23 
6 *159:4 *159:38 21.6804 
7 *159:38 *2042:A 40.61 
8 *159:38 *159:49 15 
9 *159:49 *2113:A 23 
10 *159:49 *2130:A1 26.1279 
*END

*D_NET *160 0.00246379
*CONN
*I *2147:A1 I *D sky130_fd_sc_hd__a21oi_1
*I *2078:B I *D sky130_fd_sc_hd__nand2_1
*I *2039:Y O *D sky130_fd_sc_hd__nor2_1
*CAP
1 *2147:A1 0
2 *2078:B 5.31015e-05
3 *2039:Y 0.000611978
4 *160:14 7.0981e-05
5 *160:10 0.000629858
6 *2078:B *2069:A_N 1.11037e-05
7 *160:10 *2147:B1 1.01436e-05
8 *160:10 *216:8 0.000272368
9 *160:10 *216:30 0.000393967
10 *160:10 *222:58 0.000136685
11 *2144:B *2078:B 1.05259e-05
12 *2144:B *160:10 5.58975e-06
13 *140:62 *160:10 3.6228e-05
14 *143:8 *2078:B 4.49877e-05
15 *143:8 *160:14 5.56279e-05
16 *145:8 *2078:B 9.88259e-05
17 *145:8 *160:14 2.1819e-05
*RES
1 *2039:Y *160:10 47.5493 
2 *160:10 *160:14 15.6214 
3 *160:14 *2078:B 25.0921 
4 *160:14 *2147:A1 23 
*END

*D_NET *161 0.0121785
*CONN
*I *2094:B I *D sky130_fd_sc_hd__nand2_1
*I *2150:A2 I *D sky130_fd_sc_hd__o21ai_0
*I *2129:B1 I *D sky130_fd_sc_hd__a32oi_1
*I *2040:Y O *D sky130_fd_sc_hd__nor3_1
*CAP
1 *2094:B 0
2 *2150:A2 0
3 *2129:B1 0
4 *2040:Y 0
5 *161:54 0.000167125
6 *161:46 0.00184283
7 *161:31 0.000998459
8 *161:14 0.000449605
9 *161:8 0.00185632
10 *161:6 0.00208396
11 *161:8 *173:11 0
12 *161:8 *222:28 0
13 *161:8 *230:8 0.00012758
14 *161:14 *2042:B 5.50106e-05
15 *161:14 *2128:B 0.000182832
16 *161:14 *222:136 0.00013961
17 *161:14 *230:8 0.000645299
18 *161:14 *279:41 2.11157e-05
19 *161:14 *280:14 6.7177e-06
20 *161:14 *344:21 0.000181317
21 *161:31 *2143:B2 0
22 *161:31 *213:47 0.000655168
23 *161:31 *222:16 2.27347e-05
24 *161:46 *2074:A 6.84987e-06
25 *161:46 *2074:B 5.77398e-05
26 *161:46 *2076:B1 0.000111852
27 *161:46 *2121:A1 1.84959e-05
28 *161:46 *2121:B1 7.73389e-05
29 *161:46 *171:8 0.000140958
30 *161:46 *213:92 1.86869e-05
31 *161:46 *213:103 6.03841e-05
32 *161:46 *216:59 0
33 *161:46 *222:28 0
34 *161:46 *222:154 0
35 *161:46 *229:112 0
36 *161:46 *281:175 9.58714e-05
37 *161:54 *2094:A 5.3304e-05
38 *161:54 *2120:A1 9.77405e-05
39 *161:54 *222:84 2.37544e-05
40 *161:54 *270:10 4.24694e-06
41 *2064:C *161:46 0
42 *2075:C *161:46 0
43 *2118:B *161:46 0.000129504
44 *2121:B2 *161:46 9.82009e-05
45 *2150:B1 *161:31 5.12055e-06
46 *2326:A *161:46 0.000317553
47 *42:27 *161:31 0.000110637
48 *88:12 *161:46 0
49 *97:14 *161:46 0
50 *98:10 *161:46 0.000377181
51 *99:14 *161:54 0
52 *100:49 *161:46 0.000100069
53 *125:12 *161:14 1.01107e-05
54 *125:14 *161:8 0.000222509
55 *125:14 *161:14 0.000224858
56 *125:33 *161:8 0.000350014
57 *134:10 *161:14 2.98648e-05
*RES
1 *2040:Y *161:6 38 
2 *161:6 *161:8 10.1811 
3 *161:8 *161:14 28.5575 
4 *161:14 *2129:B1 23 
5 *161:8 *161:31 36.9239 
6 *161:31 *2150:A2 23 
7 *161:6 *161:46 45.7814 
8 *161:46 *161:54 32.7757 
9 *161:54 *2094:B 23 
*END

*D_NET *162 0.0057123
*CONN
*I *2061:A2 I *D sky130_fd_sc_hd__o21ai_0
*I *2257:A I *D sky130_fd_sc_hd__dlygate4sd3_1
*I *2051:B I *D sky130_fd_sc_hd__nand2_1
*I *2041:X O *D sky130_fd_sc_hd__or4_1
*CAP
1 *2061:A2 0
2 *2257:A 0.000327119
3 *2051:B 0.000404385
4 *2041:X 0.000224596
5 *162:36 0.000676623
6 *162:14 0.000890981
7 *162:10 0.0010607
8 *2051:B *2113:B 2.33476e-05
9 *2051:B *213:20 0.000160586
10 *2051:B *219:85 0.000448702
11 *2257:A *169:10 3.16784e-05
12 *162:10 *2195:RESET_B 2.14599e-05
13 *162:10 *2197:RESET_B 5.3901e-05
14 *162:10 *169:10 0.000183781
15 *162:10 *213:88 5.50049e-05
16 *162:10 *222:28 0.00013897
17 *162:14 *2195:RESET_B 2.79653e-05
18 *162:14 *169:10 0.000168678
19 *162:14 *213:20 0
20 *162:36 *2061:A1 0.000372065
21 *2042:A *2051:B 9.88678e-05
22 *2114:A *162:36 2.50118e-05
23 *2338:A *2257:A 0.000193739
24 *4:34 *2051:B 2.7636e-05
25 *125:12 *2051:B 1.36134e-05
26 *125:14 *2051:B 0
27 *125:14 *162:14 0
28 *159:38 *2051:B 8.28897e-05
*RES
1 *2041:X *162:10 43.3443 
2 *162:10 *162:14 3.93571 
3 *162:14 *2051:B 49.0614 
4 *162:14 *2257:A 44.3386 
5 *162:10 *162:36 28.485 
6 *162:36 *2061:A2 23 
*END

*D_NET *163 0.000210371
*CONN
*I *2240:A I *D sky130_fd_sc_hd__dlygate4sd3_1
*I *2043:Y O *D sky130_fd_sc_hd__nor2_1
*CAP
1 *2240:A 6.7613e-05
2 *2043:Y 6.7613e-05
3 *42:45 *2240:A 5.3304e-05
4 *85:12 *2240:A 2.18409e-05
*RES
1 *2043:Y *2240:A 47.0979 
*END

*D_NET *164 0.00322084
*CONN
*I *2151:A3 I *D sky130_fd_sc_hd__a32o_1
*I *2050:B I *D sky130_fd_sc_hd__nand2_1
*I *2253:A I *D sky130_fd_sc_hd__dlygate4sd3_1
*I *2046:Y O *D sky130_fd_sc_hd__nor3b_1
*CAP
1 *2151:A3 0.000122422
2 *2050:B 0.000244378
3 *2253:A 4.2583e-05
4 *2046:Y 0.000285015
5 *164:21 0.000566444
6 *164:10 0.000527242
7 *2050:B *177:16 0.000521108
8 *2050:B *177:63 0.000141954
9 *2050:B *207:48 0.000308033
10 *2050:B *345:24 3.22879e-05
11 *2151:A3 *207:48 6.08032e-05
12 *2151:A3 *211:31 1.14452e-05
13 *2151:A3 *219:26 0
14 *164:10 *2152:B 0
15 *164:10 *208:10 0
16 *164:21 *208:10 0
17 *164:21 *219:26 0
18 *2158:C *164:10 0.000230604
19 *44:8 *164:10 0
20 *81:16 *2253:A 9.84851e-05
21 *82:10 *2050:B 2.80394e-05
22 *148:10 *164:10 0
*RES
1 *2046:Y *164:10 42.785 
2 *164:10 *2253:A 39.0979 
3 *164:10 *164:21 3.31429 
4 *164:21 *2050:B 45.7886 
5 *164:21 *2151:A3 40.2579 
*END

*D_NET *165 0.00238125
*CONN
*I *2140:C I *D sky130_fd_sc_hd__nor3_1
*I *2112:A I *D sky130_fd_sc_hd__or2_0
*I *2254:A I *D sky130_fd_sc_hd__dlygate4sd3_1
*I *2047:Y O *D sky130_fd_sc_hd__nor2b_1
*CAP
1 *2140:C 0.00020594
2 *2112:A 0
3 *2254:A 7.82349e-05
4 *2047:Y 0.000188414
5 *165:27 0.000340772
6 *165:14 0.00040148
7 *2140:C *2111:B1_N 9.67842e-05
8 *2140:C *2140:A 0.000349818
9 *2254:A *211:10 3.71251e-05
10 *165:14 *2111:A1 0
11 *165:14 *210:20 5.3304e-05
12 *165:14 *210:24 3.47781e-05
13 *165:14 *210:50 0.000137496
14 *165:14 *211:10 0.000110913
15 *165:14 *211:31 0.000138444
16 *165:27 *2111:A1 0
17 *165:27 *210:50 9.74235e-05
18 *123:21 *165:27 1.01436e-05
19 *124:14 *2140:C 0.00010018
*RES
1 *2047:Y *165:14 42.9507 
2 *165:14 *2254:A 39.5743 
3 *165:14 *165:27 17.9621 
4 *165:27 *2112:A 23 
5 *165:27 *2140:C 27.9093 
*END

*D_NET *166 0.000122504
*CONN
*I *2274:A I *D sky130_fd_sc_hd__dlygate4sd3_1
*I *2164:Q O *D sky130_fd_sc_hd__dfrtp_1
*CAP
1 *2274:A 1.87628e-05
2 *2164:Q 1.87628e-05
3 *2274:A *2164:RESET_B 6.17437e-06
4 *2274:A *280:28 5.56356e-05
5 *2274:A *282:365 2.31687e-05
*RES
1 *2164:Q *2274:A 46.6214 
*END

*D_NET *167 0.000388087
*CONN
*I *2233:A I *D sky130_fd_sc_hd__dlygate4sd3_1
*I *2165:Q O *D sky130_fd_sc_hd__dfrtp_1
*CAP
1 *2233:A 0
2 *2165:Q 0.000194044
3 *167:10 0.000194044
4 *167:10 *310:8 0
*RES
1 *2165:Q *167:10 41.0036 
2 *167:10 *2233:A 38 
*END

*D_NET *168 0.00120617
*CONN
*I *2252:A I *D sky130_fd_sc_hd__dlygate4sd3_1
*I *2166:Q O *D sky130_fd_sc_hd__dfrtp_1
*CAP
1 *2252:A 2.77218e-05
2 *2166:Q 0.000166808
3 *168:10 0.00019453
4 *168:10 *2166:CLK 2.95423e-05
5 *168:10 *177:18 0.000178359
6 *168:10 *177:22 0.000168678
7 *168:10 *177:37 6.17437e-06
8 *2154:A2 *2252:A 5.3304e-05
9 *150:14 *2252:A 2.64616e-05
10 *154:12 *168:10 0.000354588
*RES
1 *2166:Q *168:10 43.3443 
2 *168:10 *2252:A 38.6214 
*END

*D_NET *169 0.00113787
*CONN
*I *2242:A I *D sky130_fd_sc_hd__dlygate4sd3_1
*I *2195:Q O *D sky130_fd_sc_hd__dfrtp_1
*CAP
1 *2242:A 0
2 *2195:Q 0.00020064
3 *169:10 0.00020064
4 *169:10 *2195:RESET_B 0.00035245
5 *2257:A *169:10 3.16784e-05
6 *162:10 *169:10 0.000183781
7 *162:14 *169:10 0.000168678
*RES
1 *2195:Q *169:10 43.8207 
2 *169:10 *2242:A 38 
*END

*D_NET *170 0.000468103
*CONN
*I *2244:A I *D sky130_fd_sc_hd__dlygate4sd3_1
*I *2196:Q O *D sky130_fd_sc_hd__dfrtp_1
*CAP
1 *2244:A 0
2 *2196:Q 0.000131895
3 *170:10 0.000131895
4 *170:10 *222:37 8.3843e-05
5 *170:10 *222:58 5.46706e-05
6 *170:10 *282:409 5.5792e-05
7 *125:33 *170:10 1.00084e-05
8 *145:14 *170:10 0
*RES
1 *2196:Q *170:10 40.5271 
2 *170:10 *2244:A 38 
*END

*D_NET *171 0.000309738
*CONN
*I *2256:A I *D sky130_fd_sc_hd__dlygate4sd3_1
*I *2197:Q O *D sky130_fd_sc_hd__dfrtp_1
*CAP
1 *2256:A 0
2 *2197:Q 6.19564e-05
3 *171:8 6.19564e-05
4 *171:8 *2074:A 3.28979e-05
5 *171:8 *216:59 1.19692e-05
6 *161:46 *171:8 0.000140958
*RES
1 *2197:Q *171:8 39.9057 
2 *171:8 *2256:A 38 
*END

*D_NET *172 0.000829561
*CONN
*I *2250:A I *D sky130_fd_sc_hd__dlygate4sd3_1
*I *2198:Q O *D sky130_fd_sc_hd__dfrtp_1
*CAP
1 *2250:A 1.97605e-05
2 *2198:Q 0.000298232
3 *172:10 0.000317992
4 *2250:A *280:6 1.94812e-05
5 *172:10 *175:11 3.98859e-05
6 *172:10 *222:136 7.9199e-05
7 *85:19 *2250:A 5.50106e-05
*RES
1 *2198:Q *172:10 42.4329 
2 *172:10 *2250:A 38.6214 
*END

*D_NET *173 0.000556028
*CONN
*I *2204:A I *D sky130_fd_sc_hd__clkbuf_16
*I *2210:X O *D sky130_fd_sc_hd__clkbuf_16
*CAP
1 *2204:A 0
2 *2210:X 0
3 *173:11 0.000278014
4 *173:6 0.000278014
5 *173:11 *230:8 0
6 *161:8 *173:11 0
*RES
1 *2210:X *173:6 38 
2 *173:6 *173:11 5.075 
3 *173:11 *2204:A 38 
*END

*D_NET *174 0.00121738
*CONN
*I *2205:A I *D sky130_fd_sc_hd__clkbuf_16
*I *2203:X O *D sky130_fd_sc_hd__clkbuf_16
*CAP
1 *2205:A 0.000111067
2 *2203:X 0
3 *174:15 0.000437103
4 *174:6 0.000326035
5 *174:15 *178:14 0
6 *81:8 *174:15 0.000166666
7 *81:16 *2205:A 0.00011447
8 *81:16 *174:15 6.2039e-05
*RES
1 *2203:X *174:6 38 
2 *174:6 *174:15 21.6596 
3 *174:15 *2205:A 25.2889 
*END

*D_NET *175 0.00747296
*CONN
*I *2209:A I *D sky130_fd_sc_hd__clkbuf_16
*I *2208:A I *D sky130_fd_sc_hd__clkbuf_16
*I *2207:A I *D sky130_fd_sc_hd__clkbuf_16
*I *2206:A I *D sky130_fd_sc_hd__clkbuf_16
*I *2204:X O *D sky130_fd_sc_hd__clkbuf_16
*CAP
1 *2209:A 0.000131211
2 *2208:A 0.000100515
3 *2207:A 9.34451e-05
4 *2206:A 0
5 *2204:X 0
6 *175:61 0.000427315
7 *175:49 0.000164871
8 *175:47 0.00128017
9 *175:29 0.000343497
10 *175:24 0.000355484
11 *175:17 0.000208578
12 *175:11 0.000766968
13 *175:6 0.00158353
14 *175:11 *2142:A1 4.23714e-05
15 *175:11 *2198:RESET_B 0.000124873
16 *175:11 *207:98 0
17 *175:11 *213:20 0.000182704
18 *175:11 *213:47 1.23033e-05
19 *175:47 *2197:RESET_B 0
20 *175:47 *213:20 5.1866e-05
21 *175:47 *221:10 0
22 *2064:C *175:47 0
23 *2245:A *175:47 1.34354e-05
24 *2249:A *175:47 0.000246036
25 *4:10 *175:11 0.000118848
26 *4:10 *175:47 0.000780222
27 *4:34 *175:11 0.000404833
28 *88:12 *175:47 0
29 *88:61 *175:47 0
30 *172:10 *175:11 3.98859e-05
*RES
1 *2204:X *175:6 38 
2 *175:6 *175:11 16.6957 
3 *175:11 *175:17 16.5743 
4 *175:17 *2206:A 23 
5 *175:17 *175:24 2.03518 
6 *175:24 *175:29 4.21018 
7 *175:29 *2207:A 24.8125 
8 *175:6 *175:47 36.3357 
9 *175:47 *175:49 1.015 
10 *175:49 *2208:A 24.6571 
11 *175:47 *175:61 5.44268 
12 *175:61 *2209:A 24.9937 
*END

*D_NET *176 0.00185793
*CONN
*I *2056:A I *D sky130_fd_sc_hd__nor2_1
*I *2205:X O *D sky130_fd_sc_hd__clkbuf_16
*CAP
1 *2056:A 0.000142894
2 *2205:X 0.000458437
3 *176:10 0.000601331
4 *2056:A *280:28 0.000182695
5 *2056:A *282:365 0.000141355
6 *176:10 *203:23 0
7 *176:10 *249:8 7.52305e-05
8 *176:10 *282:355 7.55892e-05
9 *176:10 *282:365 8.03374e-05
10 *81:16 *176:10 0.000100061
*RES
1 *2205:X *176:10 47.6943 
2 *176:10 *2056:A 41.9771 
*END

*D_NET *177 0.0157536
*CONN
*I *2198:CLK I *D sky130_fd_sc_hd__dfrtp_1
*I *2195:CLK I *D sky130_fd_sc_hd__dfrtp_1
*I *2194:CLK I *D sky130_fd_sc_hd__dfrtp_1
*I *2200:CLK I *D sky130_fd_sc_hd__dfrtp_1
*I *2211:A I *D sky130_fd_sc_hd__clkbuf_8
*I *2199:CLK I *D sky130_fd_sc_hd__dfstp_2
*I *2201:CLK I *D sky130_fd_sc_hd__dfrtp_1
*I *2164:CLK I *D sky130_fd_sc_hd__dfrtp_1
*I *2165:CLK I *D sky130_fd_sc_hd__dfrtp_1
*I *2166:CLK I *D sky130_fd_sc_hd__dfrtp_1
*I *2206:X O *D sky130_fd_sc_hd__clkbuf_16
*CAP
1 *2198:CLK 0
2 *2195:CLK 0.000121248
3 *2194:CLK 0.000730554
4 *2200:CLK 9.37343e-05
5 *2211:A 0
6 *2199:CLK 0.00017384
7 *2201:CLK 0
8 *2164:CLK 0.000160539
9 *2165:CLK 0
10 *2166:CLK 0.000515335
11 *2206:X 0
12 *177:109 0.00148841
13 *177:99 0.000934139
14 *177:63 0.00106209
15 *177:53 0.00129226
16 *177:37 0.000383259
17 *177:22 0.000973098
18 *177:18 0.000750746
19 *177:16 0.000791577
20 *177:12 0.000427723
21 *177:10 0.000395968
22 *177:6 0.000391589
23 *2166:CLK *2166:RESET_B 4.60337e-05
24 *2194:CLK *2146:B1 5.56356e-05
25 *2194:CLK *2194:D 5.41288e-05
26 *2194:CLK *282:295 8.7769e-05
27 *2195:CLK *2146:B1 0.00023506
28 *2199:CLK *2152:B 0
29 *2199:CLK *2199:D 5.3304e-05
30 *2199:CLK *210:24 4.08376e-06
31 *2199:CLK *212:10 3.47781e-05
32 *2199:CLK *282:308 0
33 *2199:CLK *282:340 1.76557e-05
34 *2200:CLK *2200:D 5.56356e-05
35 *177:10 *207:48 0
36 *177:12 *207:48 7.53384e-06
37 *177:12 *208:10 3.17516e-05
38 *177:16 *207:48 4.79641e-05
39 *177:16 *208:10 2.30292e-05
40 *177:18 *2050:A 0
41 *177:18 *2152:B 0
42 *177:18 *207:10 0
43 *177:37 *198:10 8.43728e-05
44 *177:37 *198:14 1.83564e-05
45 *177:37 *205:10 3.76607e-05
46 *177:37 *280:38 8.58827e-05
47 *177:63 *2050:A 7.88926e-05
48 *177:63 *282:245 4.83893e-05
49 *177:63 *345:8 3.70553e-06
50 *177:63 *345:24 8.10066e-05
51 *177:99 *2151:B2 2.95125e-05
52 *177:99 *2198:D 7.40718e-05
53 *177:99 *207:48 0
54 *177:99 *222:113 2.70366e-05
55 *177:109 *2141:B 4.63333e-05
56 *177:109 *2198:D 5.79559e-05
57 *177:109 *207:67 0
58 *177:109 *219:33 0
59 *177:109 *222:16 0
60 *177:109 *222:113 0
61 *2050:B *177:16 0.000521108
62 *2050:B *177:63 0.000141954
63 *2052:B *177:10 0.000141888
64 *2052:B *177:99 0.000114083
65 *2161:B1 *177:18 0.000203333
66 *2162:A2 *2164:CLK 9.41704e-05
67 *2232:A *2194:CLK 0.000143655
68 *2235:A *177:37 5.3304e-05
69 *75:10 *2194:CLK 1.71005e-05
70 *79:8 *177:37 0.000138504
71 *81:43 *2199:CLK 4.96717e-05
72 *82:10 *177:16 0.00025779
73 *83:10 *177:99 0.000103949
74 *141:8 *177:109 7.03766e-05
75 *147:10 *177:99 0
76 *147:10 *177:109 0.000450897
77 *148:10 *177:18 7.80354e-05
78 *148:14 *177:18 0.000208656
79 *148:20 *177:18 0.000212121
80 *148:20 *177:22 0.000218382
81 *154:12 *177:18 1.25922e-05
82 *154:12 *177:22 2.56377e-05
83 *168:10 *2166:CLK 2.95423e-05
84 *168:10 *177:18 0.000178359
85 *168:10 *177:22 0.000168678
86 *168:10 *177:37 6.17437e-06
*RES
1 *2206:X *177:6 38 
2 *177:6 *177:10 16.9057 
3 *177:10 *177:12 3.95643 
4 *177:12 *177:16 21.815 
5 *177:16 *177:18 11.4136 
6 *177:18 *177:22 17.9621 
7 *177:22 *2166:CLK 32.1971 
8 *177:22 *177:37 37.395 
9 *177:37 *2165:CLK 23 
10 *177:18 *2164:CLK 40.5271 
11 *177:16 *177:53 0.849286 
12 *177:53 *177:63 30.5771 
13 *177:63 *2201:CLK 23 
14 *177:53 *2199:CLK 41.3557 
15 *177:12 *2211:A 23 
16 *177:10 *2200:CLK 24.5743 
17 *177:6 *177:99 21.9186 
18 *177:99 *177:109 42.7807 
19 *177:109 *2194:CLK 36.485 
20 *177:109 *2195:CLK 26.0036 
21 *177:99 *2198:CLK 23 
*END

*D_NET *178 0.0124405
*CONN
*I *2176:CLK I *D sky130_fd_sc_hd__dfrtp_1
*I *2183:CLK I *D sky130_fd_sc_hd__dfrtp_1
*I *2169:CLK I *D sky130_fd_sc_hd__dfrtp_1
*I *2202:CLK I *D sky130_fd_sc_hd__dfrtp_1
*I *2190:CLK I *D sky130_fd_sc_hd__dfrtp_1
*I *2212:A I *D sky130_fd_sc_hd__clkbuf_8
*I *2181:CLK I *D sky130_fd_sc_hd__dfrtp_1
*I *2167:CLK I *D sky130_fd_sc_hd__dfrtp_1
*I *2182:CLK I *D sky130_fd_sc_hd__dfrtp_1
*I *2168:CLK I *D sky130_fd_sc_hd__dfrtp_1
*I *2207:X O *D sky130_fd_sc_hd__clkbuf_16
*CAP
1 *2176:CLK 5.41242e-05
2 *2183:CLK 9.5152e-05
3 *2169:CLK 0.000246953
4 *2202:CLK 0.000595515
5 *2190:CLK 0.000394616
6 *2212:A 4.24511e-05
7 *2181:CLK 0.00046769
8 *2167:CLK 0.000131392
9 *2182:CLK 0
10 *2168:CLK 0.000271512
11 *2207:X 0.000677774
12 *178:110 0.000774474
13 *178:104 0.000599913
14 *178:89 0.000905267
15 *178:22 0.000388939
16 *178:20 0.000556644
17 *178:14 0.00139073
18 *178:10 0.000765292
19 *178:8 0.000983687
20 *2168:CLK *2168:D 8.1796e-05
21 *2176:CLK *2190:RESET_B 3.59965e-05
22 *2181:CLK *2058:A1 0.000588201
23 *2181:CLK *2167:RESET_B 3.46302e-05
24 *2181:CLK *187:10 0.000308982
25 *2183:CLK *281:92 0.000187335
26 *2190:CLK *2128:B 7.27839e-05
27 *2190:CLK *280:14 0
28 *2202:CLK *2202:D 5.40337e-05
29 *2202:CLK *281:29 0
30 *2202:CLK *281:31 0
31 *178:10 *280:14 0
32 *178:14 *255:23 3.13952e-05
33 *178:14 *280:14 0
34 *178:14 *280:94 8.0612e-06
35 *178:20 *2058:S 8.80481e-05
36 *178:20 *187:10 5.58003e-05
37 *178:20 *280:28 5.58003e-05
38 *178:20 *280:88 0.000172432
39 *178:104 *281:29 0
40 *178:110 *2092:A1 0.000452793
41 *178:110 *2190:RESET_B 1.40958e-05
42 *178:110 *273:14 0
43 *178:110 *281:10 0.000223043
44 *178:110 *281:92 1.01436e-05
45 *2129:A3 *2190:CLK 0
46 *55:8 *2202:CLK 1.01436e-05
47 *55:8 *178:104 0.000141888
48 *69:10 *2190:CLK 0
49 *81:8 *2168:CLK 9.98995e-05
50 *81:8 *178:14 0
51 *81:8 *178:20 9.23932e-05
52 *81:8 *178:22 0.000113464
53 *85:34 *2190:CLK 2.96369e-05
54 *109:10 *178:110 0.000135547
55 *174:15 *178:14 0
*RES
1 *2207:X *178:8 44.3386 
2 *178:8 *178:10 1.90571 
3 *178:10 *178:14 27.1179 
4 *178:14 *178:20 21.5664 
5 *178:20 *178:22 2.96214 
6 *178:22 *2168:CLK 44.09 
7 *178:22 *2182:CLK 38 
8 *178:20 *2167:CLK 40.0507 
9 *178:14 *2181:CLK 34.1236 
10 *178:10 *2212:A 38.6214 
11 *178:8 *2190:CLK 45.25 
12 *2207:X *178:89 41.48 
13 *178:89 *2202:CLK 49.165 
14 *178:89 *178:104 17.61 
15 *178:104 *178:110 25.5229 
16 *178:110 *2169:CLK 42.4329 
17 *178:110 *2183:CLK 40.61 
18 *178:104 *2176:CLK 24.0979 
*END

*D_NET *179 0.0147761
*CONN
*I *2173:CLK I *D sky130_fd_sc_hd__dfrtp_1
*I *2187:CLK I *D sky130_fd_sc_hd__dfrtp_1
*I *2172:CLK I *D sky130_fd_sc_hd__dfrtp_1
*I *2177:CLK I *D sky130_fd_sc_hd__dfrtp_1
*I *2191:CLK I *D sky130_fd_sc_hd__dfrtp_1
*I *2178:CLK I *D sky130_fd_sc_hd__dfrtp_1
*I *2192:CLK I *D sky130_fd_sc_hd__dfrtp_1
*I *2196:CLK I *D sky130_fd_sc_hd__dfrtp_1
*I *2193:CLK I *D sky130_fd_sc_hd__dfrtp_1
*I *2179:CLK I *D sky130_fd_sc_hd__dfrtp_1
*I *2180:CLK I *D sky130_fd_sc_hd__dfrtp_1
*I *2208:X O *D sky130_fd_sc_hd__clkbuf_16
*CAP
1 *2173:CLK 0
2 *2187:CLK 0.000287695
3 *2172:CLK 0.000687452
4 *2177:CLK 0
5 *2191:CLK 9.66269e-05
6 *2178:CLK 0
7 *2192:CLK 0.000245677
8 *2196:CLK 0
9 *2193:CLK 0
10 *2179:CLK 0
11 *2180:CLK 0
12 *2208:X 0.000497019
13 *179:109 0.000816163
14 *179:96 0.000466224
15 *179:87 0.000650998
16 *179:74 0.000952247
17 *179:70 0.000850047
18 *179:59 0.000529741
19 *179:46 0.0007893
20 *179:32 0.000441771
21 *179:22 0.000647996
22 *179:16 0.000812004
23 *179:14 0.000612115
24 *179:12 0.000497019
25 *2172:CLK *2177:RESET_B 0.000170348
26 *2172:CLK *253:10 3.22051e-05
27 *2191:CLK *275:23 0.000196481
28 *179:12 *2173:D 9.67842e-05
29 *179:12 *2173:RESET_B 0.000481896
30 *179:16 *184:10 0.000141888
31 *179:16 *242:8 4.9149e-05
32 *179:16 *325:10 0
33 *179:16 *326:8 7.03766e-05
34 *179:22 *184:10 0.000219882
35 *179:22 *242:8 5.50955e-05
36 *179:22 *314:10 0
37 *179:32 *2180:D 7.5607e-05
38 *179:32 *184:10 0
39 *179:46 *2193:D 7.88828e-05
40 *179:46 *264:10 4.57742e-05
41 *179:59 *2193:D 2.32101e-05
42 *179:59 *181:106 0
43 *179:70 *325:10 3.7122e-06
44 *179:96 *2178:RESET_B 0.000144448
45 *179:109 *275:23 0.000247678
46 *2122:A1 *179:12 9.15843e-05
47 *2133:A *179:87 0.000103141
48 *2133:A *179:96 5.50106e-05
49 *2135:B *179:16 0
50 *2145:B *179:59 0.000194309
51 *2216:A *179:59 0.000228909
52 *2220:A *179:12 0.000221992
53 *42:78 *179:32 0.000349696
54 *42:97 *179:32 0
55 *42:178 *179:70 0
56 *42:178 *179:74 0
57 *59:12 *179:32 2.60152e-05
58 *100:14 *179:59 0.00014065
59 *102:27 *179:12 5.50049e-05
60 *115:10 *179:87 0.000105814
61 *116:10 *179:87 9.83799e-05
62 *117:21 *2191:CLK 0
63 *117:21 *179:16 0
64 *117:21 *179:70 0
65 *117:21 *179:74 0
66 *117:21 *179:109 0
67 *118:29 *179:16 0.000247678
68 *122:10 *179:32 0.000141675
69 *124:25 *179:59 7.59861e-05
70 *124:61 *179:59 0.000141212
71 *124:110 *179:87 3.49086e-05
72 *130:10 *179:12 0.000389766
73 *137:8 *179:16 0
74 *138:12 *179:59 6.08879e-05
*RES
1 *2208:X *179:12 36.5471 
2 *179:12 *179:14 15 
3 *179:14 *179:16 8.59643 
4 *179:16 *179:22 20.0129 
5 *179:22 *179:32 40.7921 
6 *179:32 *2180:CLK 23 
7 *179:22 *2179:CLK 23 
8 *179:16 *179:46 19.4329 
9 *179:46 *2193:CLK 23 
10 *179:46 *179:59 43.5057 
11 *179:59 *2196:CLK 23 
12 *179:14 *179:70 19.5364 
13 *179:70 *179:74 20.7793 
14 *179:74 *2192:CLK 42.4329 
15 *179:74 *179:87 23.2443 
16 *179:87 *2178:CLK 23 
17 *179:87 *179:96 19.9093 
18 *179:96 *2191:CLK 40.61 
19 *179:96 *179:109 18.3143 
20 *179:109 *2177:CLK 23 
21 *179:109 *2172:CLK 35.5321 
22 *179:70 *2187:CLK 27.9093 
23 *179:12 *2173:CLK 23 
*END

*D_NET *180 0.0155118
*CONN
*I *2184:CLK I *D sky130_fd_sc_hd__dfrtp_1
*I *2170:CLK I *D sky130_fd_sc_hd__dfrtp_1
*I *2174:CLK I *D sky130_fd_sc_hd__dfrtp_1
*I *2188:CLK I *D sky130_fd_sc_hd__dfrtp_1
*I *2197:CLK I *D sky130_fd_sc_hd__dfrtp_1
*I *2189:CLK I *D sky130_fd_sc_hd__dfrtp_1
*I *2175:CLK I *D sky130_fd_sc_hd__dfrtp_1
*I *2171:CLK I *D sky130_fd_sc_hd__dfrtp_1
*I *2185:CLK I *D sky130_fd_sc_hd__dfrtp_1
*I *2186:CLK I *D sky130_fd_sc_hd__dfrtp_1
*I *2213:A I *D sky130_fd_sc_hd__clkbuf_1
*I *2209:X O *D sky130_fd_sc_hd__clkbuf_16
*CAP
1 *2184:CLK 0.00026615
2 *2170:CLK 0.000156967
3 *2174:CLK 0.000510471
4 *2188:CLK 0
5 *2197:CLK 0
6 *2189:CLK 0
7 *2175:CLK 0.000373683
8 *2171:CLK 0.000269748
9 *2185:CLK 5.145e-05
10 *2186:CLK 0.000539269
11 *2213:A 0
12 *2209:X 0.000798626
13 *180:110 0.000826602
14 *180:94 0.000510471
15 *180:87 0.00119148
16 *180:65 0.000532473
17 *180:63 0.00160442
18 *180:61 0.000366646
19 *180:59 0.000753642
20 *180:30 0.00051003
21 *180:19 0.000984232
22 *180:10 0.000817091
23 *2170:CLK *341:10 6.17437e-06
24 *2171:CLK *2171:D 6.17437e-06
25 *2171:CLK *2172:RESET_B 4.56101e-05
26 *2171:CLK *269:23 0.000447113
27 *2171:CLK *287:8 0
28 *2171:CLK *289:8 3.21223e-05
29 *2174:CLK *2188:RESET_B 0.00010252
30 *2174:CLK *2189:RESET_B 5.02764e-05
31 *2174:CLK *271:28 3.22051e-05
32 *2175:CLK *191:10 0.000204268
33 *2175:CLK *279:90 0
34 *2184:CLK *2184:D 1.05235e-05
35 *2184:CLK *2185:RESET_B 7.55918e-06
36 *2184:CLK *341:10 8.36198e-05
37 *2186:CLK *2186:RESET_B 6.86826e-05
38 *2186:CLK *269:8 2.64616e-05
39 *2186:CLK *336:10 3.0207e-05
40 *180:10 *222:154 6.6869e-05
41 *180:19 *2070:B 3.07161e-05
42 *180:19 *2267:A 0.000215252
43 *180:19 *222:154 6.07611e-06
44 *180:30 *2267:A 5.19959e-05
45 *180:30 *269:23 0.000346351
46 *180:30 *276:10 4.51746e-05
47 *180:61 *197:10 2.61699e-05
48 *180:61 *279:109 7.13673e-05
49 *180:63 *2189:RESET_B 0
50 *180:63 *197:10 1.44546e-05
51 *180:63 *279:94 0.000128985
52 *180:63 *279:109 2.76611e-06
53 *180:65 *2189:RESET_B 0
54 *180:65 *191:10 4.21594e-06
55 *180:65 *278:10 0
56 *180:65 *279:94 6.95665e-05
57 *180:87 *2074:B 0.000138444
58 *180:87 *2197:D 0.00011451
59 *180:87 *190:10 6.343e-05
60 *180:110 *279:109 0.00019706
61 *2118:B *180:19 6.8387e-05
62 *2222:A *2175:CLK 0.00010018
63 *63:8 *2170:CLK 0.000279227
64 *67:10 *2174:CLK 2.93845e-05
65 *67:10 *180:61 0.000139647
66 *67:10 *180:110 1.01436e-05
67 *68:8 *2175:CLK 0.00014411
68 *88:18 *180:87 0.000270809
69 *94:10 *180:19 0
70 *95:23 *2171:CLK 0.000249634
71 *95:23 *180:30 0.000270532
72 *97:8 *180:87 5.41288e-05
73 *98:10 *180:10 4.48568e-05
74 *98:10 *180:19 7.75329e-06
75 *146:10 *180:87 3.26723e-05
*RES
1 *2209:X *180:10 45.7679 
2 *180:10 *2213:A 38 
3 *180:10 *180:19 6.13143 
4 *180:19 *2186:CLK 47.1971 
5 *180:19 *180:30 5.42714 
6 *180:30 *2185:CLK 38.6214 
7 *180:30 *2171:CLK 45.7057 
8 *2209:X *180:59 41.48 
9 *180:59 *180:61 2.96214 
10 *180:61 *180:63 5.42714 
11 *180:63 *180:65 3.31429 
12 *180:65 *2175:CLK 47.425 
13 *180:65 *2189:CLK 38 
14 *180:63 *180:87 37.5371 
15 *180:87 *2197:CLK 23 
16 *180:61 *180:94 15 
17 *180:94 *2188:CLK 23 
18 *180:94 *2174:CLK 33.1707 
19 *180:59 *180:110 8.94857 
20 *180:110 *2170:CLK 41.9564 
21 *180:110 *2184:CLK 42.3293 
*END

*D_NET *181 0.0221133
*CONN
*I *2071:A1 I *D sky130_fd_sc_hd__o21ai_0
*I *2065:A1 I *D sky130_fd_sc_hd__o21ai_0
*I *2076:A1 I *D sky130_fd_sc_hd__o21ai_0
*I *2095:A1 I *D sky130_fd_sc_hd__o21ai_0
*I *2098:A1 I *D sky130_fd_sc_hd__o21ai_0
*I *2080:A2 I *D sky130_fd_sc_hd__o31ai_1
*I *2102:A1 I *D sky130_fd_sc_hd__o21ai_0
*I *2106:A1 I *D sky130_fd_sc_hd__o21ai_0
*I *2083:A1 I *D sky130_fd_sc_hd__o31ai_1
*I *2086:A1 I *D sky130_fd_sc_hd__o31ai_1
*I *2089:A I *D sky130_fd_sc_hd__or3_1
*I *2061:A1 I *D sky130_fd_sc_hd__o21ai_0
*I *2332:X O *D sky130_fd_sc_hd__buf_2
*CAP
1 *2071:A1 4.96015e-05
2 *2065:A1 4.45238e-05
3 *2076:A1 0
4 *2095:A1 0
5 *2098:A1 0
6 *2080:A2 0
7 *2102:A1 0
8 *2106:A1 0
9 *2083:A1 3.80122e-05
10 *2086:A1 0
11 *2089:A 2.01797e-05
12 *2061:A1 0.000473558
13 *2332:X 0.000127236
14 *181:137 0.00059035
15 *181:127 0.000975607
16 *181:106 0.000565228
17 *181:100 0.00116021
18 *181:86 0.00101749
19 *181:80 0.00127451
20 *181:76 0.00111116
21 *181:30 0.000640809
22 *181:28 0.000387565
23 *181:26 0.000585778
24 *181:24 0.00118212
25 *181:18 0.000593801
26 *181:14 0.00123112
27 *181:8 0.00098992
28 *2065:A1 *2065:B1 1.32314e-05
29 *2065:A1 *281:175 0.000127821
30 *2071:A1 *2185:RESET_B 4.91172e-06
31 *181:14 *2071:B1 4.9858e-05
32 *181:14 *2171:RESET_B 0
33 *181:14 *2185:RESET_B 5.511e-05
34 *181:14 *204:10 8.26569e-05
35 *181:14 *204:14 0.000623173
36 *181:14 *268:8 0.000626743
37 *181:14 *287:8 0
38 *181:14 *334:10 0.000260047
39 *181:14 *340:10 2.07509e-05
40 *181:18 *2065:B1 7.6774e-06
41 *181:18 *2071:B1 1.13812e-05
42 *181:18 *278:32 8.95485e-05
43 *181:18 *340:10 5.202e-05
44 *181:24 *2070:B 0
45 *181:24 *278:32 0
46 *181:24 *281:175 0.000228909
47 *181:26 *2070:B 0
48 *181:26 *229:112 0
49 *181:28 *229:12 0
50 *181:28 *229:26 0
51 *181:28 *229:112 0
52 *181:30 *229:12 0
53 *181:80 *2076:B1 4.95081e-05
54 *181:80 *2272:A 8.49716e-05
55 *181:80 *270:6 5.50106e-05
56 *181:86 *222:78 8.31134e-05
57 *181:86 *222:84 0.000178946
58 *181:100 *2123:A1 0.000133638
59 *181:100 *2123:B1 5.67058e-05
60 *181:100 *229:46 0.000155338
61 *181:106 *229:46 0
62 *181:127 *222:84 1.12487e-05
63 *181:127 *246:10 0
64 *181:127 *270:10 0.0003953
65 *181:137 *2265:A 5.45644e-05
66 *181:137 *276:62 6.28336e-05
67 *181:137 *329:8 3.56377e-05
68 *2070:C *181:24 3.47781e-05
69 *2070:C *181:26 0.000367949
70 *2070:C *181:76 0.000441065
71 *2071:A2 *2071:A1 5.58003e-05
72 *2076:A2 *181:76 6.16045e-05
73 *2076:A2 *181:80 5.67058e-05
74 *2089:C *2089:A 9.84794e-05
75 *2095:A2 *181:127 0.000231039
76 *2097:A *181:100 0.000265472
77 *2097:C *181:100 5.3304e-05
78 *2098:A2 *181:137 0.000104578
79 *2106:A2 *181:106 0
80 *2114:A *2061:A1 0.000102438
81 *2126:A1 *2089:A 9.84794e-05
82 *2135:B *181:106 0
83 *2216:A *181:106 0.000244701
84 *2320:A *181:137 0.000182222
85 *5:9 *181:8 1.84917e-05
86 *88:26 *181:100 0.000185755
87 *88:26 *181:106 0
88 *88:65 *2083:A1 5.3304e-05
89 *89:12 *2061:A1 1.34354e-05
90 *89:12 *181:30 2.472e-05
91 *90:12 *2065:A1 4.39725e-05
92 *90:12 *181:24 8.65442e-05
93 *93:12 *181:26 0.000197479
94 *93:12 *181:28 0.000431843
95 *93:12 *181:30 1.14452e-05
96 *94:10 *181:18 0
97 *94:10 *181:24 6.68793e-05
98 *95:6 *2071:A1 6.17437e-06
99 *99:6 *181:80 0.000118217
100 *99:14 *181:80 7.05498e-05
101 *100:34 *181:86 0
102 *100:49 *181:86 0
103 *100:49 *181:127 0
104 *101:10 *181:30 2.24151e-05
105 *101:20 *181:30 5.56203e-05
106 *101:74 *181:100 9.91798e-05
107 *102:6 *181:100 4.38084e-05
108 *108:10 *2061:A1 0.000326035
109 *112:8 *181:127 0.000139704
110 *117:8 *181:100 8.47306e-05
111 *121:25 *181:106 0
112 *124:110 *181:137 0.000572928
113 *162:36 *2061:A1 0.000372065
114 *179:59 *181:106 0
*RES
1 *2332:X *181:8 39.5743 
2 *181:8 *181:14 28.3786 
3 *181:14 *181:18 20.7793 
4 *181:18 *181:24 21.1936 
5 *181:24 *181:26 7.54 
6 *181:26 *181:28 5.77929 
7 *181:28 *181:30 3.31429 
8 *181:30 *2061:A1 48.9786 
9 *181:30 *2089:A 39.0979 
10 *181:28 *2086:A1 38 
11 *181:26 *2083:A1 38.6214 
12 *181:24 *181:76 24.57 
13 *181:76 *181:80 25.6264 
14 *181:80 *181:86 22.9646 
15 *181:86 *181:100 44.8418 
16 *181:100 *181:106 41.0614 
17 *181:106 *2106:A1 23 
18 *181:100 *2102:A1 23 
19 *181:86 *2080:A2 23 
20 *181:80 *181:127 23.7829 
21 *181:127 *181:137 43.7336 
22 *181:137 *2098:A1 23 
23 *181:127 *2095:A1 23 
24 *181:76 *2076:A1 23 
25 *181:18 *2065:A1 24.5743 
26 *181:14 *2071:A1 39.0979 
*END

*D_NET *182 0.00654679
*CONN
*I *2294:A I *D sky130_fd_sc_hd__dlygate4sd3_1
*I *2343:A I *D sky130_fd_sc_hd__buf_2
*I *2180:Q O *D sky130_fd_sc_hd__dfrtp_1
*CAP
1 *2294:A 0
2 *2343:A 0
3 *2180:Q 0
4 *182:21 0.000427987
5 *182:8 0.00111921
6 *182:4 0.00154719
7 *182:8 *265:34 0.00340354
8 *182:21 *265:34 4.65096e-05
9 *2107:B *182:21 2.35118e-06
*RES
1 *2180:Q *182:4 23 
2 *182:4 *182:8 36.8507 
3 *182:8 *2343:A 23 
4 *182:4 *182:21 37.9957 
5 *182:21 *2294:A 23 
*END

*D_NET *183 0.000737881
*CONN
*I *2183:D I *D sky130_fd_sc_hd__dfrtp_1
*I *2214:X O *D sky130_fd_sc_hd__dlygate4sd3_1
*CAP
1 *2183:D 0
2 *2214:X 0.000277006
3 *183:10 0.000277006
4 *183:10 *342:6 9.8111e-05
5 *62:10 *183:10 8.57577e-05
*RES
1 *2214:X *183:10 42.5571 
2 *183:10 *2183:D 38 
*END

*D_NET *184 0.00175341
*CONN
*I *2102:B1 I *D sky130_fd_sc_hd__o21ai_0
*I *2136:A1 I *D sky130_fd_sc_hd__a22o_1
*I *2215:X O *D sky130_fd_sc_hd__dlygate4sd3_1
*CAP
1 *2102:B1 7.54076e-05
2 *2136:A1 0
3 *2215:X 0.000456453
4 *184:10 0.000381046
5 *184:10 *264:10 7.03663e-05
6 *118:6 *2102:B1 0.000138444
7 *118:6 *184:10 9.84851e-05
8 *122:10 *184:10 0
9 *124:54 *184:10 1.47563e-05
10 *125:41 *184:10 1.14452e-05
11 *137:8 *184:10 0.000145236
12 *179:16 *184:10 0.000141888
13 *179:22 *184:10 0.000219882
14 *179:32 *184:10 0
*RES
1 *2215:X *184:10 47.3421 
2 *184:10 *2136:A1 38 
3 *2215:X *2102:B1 47.5743 
*END

*D_NET *185 0.000304174
*CONN
*I *2193:D I *D sky130_fd_sc_hd__dfrtp_1
*I *2216:X O *D sky130_fd_sc_hd__dlygate4sd3_1
*CAP
1 *2193:D 0.000101041
2 *2216:X 0.000101041
3 *179:46 *2193:D 7.88828e-05
4 *179:59 *2193:D 2.32101e-05
*RES
1 *2216:X *2193:D 48.0507 
*END

*D_NET *186 0.00321569
*CONN
*I *2058:A1 I *D sky130_fd_sc_hd__mux2_1
*I *2109:A1 I *D sky130_fd_sc_hd__mux2_1
*I *2217:X O *D sky130_fd_sc_hd__dlygate4sd3_1
*CAP
1 *2058:A1 0.000147409
2 *2109:A1 0.000471314
3 *2217:X 0.000300816
4 *186:10 0.000919538
5 *2109:A1 *2167:RESET_B 0.000149886
6 *2109:A1 *245:10 8.91405e-05
7 *2109:A1 *281:47 0.000144501
8 *186:10 *245:10 7.84832e-05
9 *2181:CLK *2058:A1 0.000588201
10 *46:8 *2058:A1 0.000326398
*RES
1 *2217:X *186:10 42.785 
2 *186:10 *2109:A1 47.9014 
3 *186:10 *2058:A1 44.3386 
*END

*D_NET *187 0.00109943
*CONN
*I *2167:D I *D sky130_fd_sc_hd__dfrtp_1
*I *2218:X O *D sky130_fd_sc_hd__dlygate4sd3_1
*CAP
1 *2167:D 0
2 *2218:X 0.000313538
3 *187:10 0.000313538
4 *187:10 *255:23 3.84822e-05
5 *187:10 *280:94 6.90927e-05
6 *2181:CLK *187:10 0.000308982
7 *178:20 *187:10 5.58003e-05
*RES
1 *2218:X *187:10 43.8621 
2 *187:10 *2167:D 38 
*END

*D_NET *188 0.00168325
*CONN
*I *2123:A1 I *D sky130_fd_sc_hd__a22o_1
*I *2080:B1 I *D sky130_fd_sc_hd__o31ai_1
*I *2219:X O *D sky130_fd_sc_hd__dlygate4sd3_1
*CAP
1 *2123:A1 9.88587e-05
2 *2080:B1 0
3 *2219:X 0.000339818
4 *188:10 9.88587e-05
5 *188:8 0.000339818
6 *2123:A1 *2123:B1 5.50049e-05
7 *188:8 *2123:B1 0
8 *2082:A2 *2123:A1 0
9 *2097:A *2123:A1 0
10 *100:34 *188:8 4.334e-05
11 *100:49 *188:8 0.000259354
12 *102:6 *2123:A1 0.000265472
13 *130:10 *188:8 4.90891e-05
14 *181:100 *2123:A1 0.000133638
*RES
1 *2219:X *188:8 45.8921 
2 *188:8 *188:10 15 
3 *188:10 *2080:B1 23 
4 *188:10 *2123:A1 26.9979 
*END

*D_NET *189 0.000374068
*CONN
*I *2187:D I *D sky130_fd_sc_hd__dfrtp_1
*I *2220:X O *D sky130_fd_sc_hd__dlygate4sd3_1
*CAP
1 *2187:D 4.54044e-05
2 *2220:X 7.24729e-05
3 *189:8 0.000117877
4 *2187:D *282:130 2.64616e-05
5 *189:8 *282:130 0.000111852
6 *124:76 *189:8 0
*RES
1 *2220:X *189:8 39.5536 
2 *189:8 *2187:D 38.6214 
*END

*D_NET *190 0.00172712
*CONN
*I *2127:A1 I *D sky130_fd_sc_hd__a22o_1
*I *2086:B1 I *D sky130_fd_sc_hd__o31ai_1
*I *2221:X O *D sky130_fd_sc_hd__dlygate4sd3_1
*CAP
1 *2127:A1 0
2 *2086:B1 0.000103455
3 *2221:X 0.00052476
4 *190:12 0.000103455
5 *190:10 0.00052476
6 *2086:B1 *2127:B1 5.50106e-05
7 *2086:B1 *279:90 6.17437e-06
8 *190:10 *278:21 5.21127e-05
9 *190:10 *279:94 0.000108681
10 *93:8 *2086:B1 0
11 *106:10 *2086:B1 2.45549e-06
12 *106:30 *2086:B1 0.000182826
13 *180:87 *190:10 6.343e-05
*RES
1 *2221:X *190:10 45.4157 
2 *190:10 *190:12 15 
3 *190:12 *2086:B1 25.5479 
4 *190:12 *2127:A1 23 
*END

*D_NET *191 0.000755911
*CONN
*I *2189:D I *D sky130_fd_sc_hd__dfrtp_1
*I *2222:X O *D sky130_fd_sc_hd__dlygate4sd3_1
*CAP
1 *2189:D 0
2 *2222:X 0.000273713
3 *191:10 0.000273713
4 *2175:CLK *191:10 0.000204268
5 *180:65 *191:10 4.21594e-06
*RES
1 *2222:X *191:10 42.9093 
2 *191:10 *2189:D 38 
*END

*D_NET *192 0.00269831
*CONN
*I *2090:A I *D sky130_fd_sc_hd__nand2_1
*I *2128:A I *D sky130_fd_sc_hd__nand2_1
*I *2129:A1 I *D sky130_fd_sc_hd__a32oi_1
*I *2223:X O *D sky130_fd_sc_hd__dlygate4sd3_1
*CAP
1 *2090:A 0.000374697
2 *2128:A 2.65995e-05
3 *2129:A1 0.000170669
4 *2223:X 0.000115891
5 *192:14 0.000367202
6 *192:8 0.000660522
7 *2090:A *2190:RESET_B 0.000178813
8 *2090:A *273:6 6.36877e-05
9 *2128:A *2128:B 5.43894e-06
10 *2129:A1 *2128:B 5.29672e-05
11 *2129:A1 *222:136 4.00259e-06
12 *2090:B *2090:A 7.09377e-05
13 *2129:A3 *2129:A1 5.50049e-05
14 *2129:A3 *192:8 0
15 *2129:A3 *192:14 0
16 *108:10 *192:8 0
17 *109:10 *2090:A 6.17437e-06
18 *133:10 *2129:A1 1.32314e-05
19 *133:10 *192:8 0.000222123
20 *133:10 *192:14 0.000310347
*RES
1 *2223:X *192:8 40.9621 
2 *192:8 *192:14 19.0807 
3 *192:14 *2129:A1 26.5007 
4 *192:14 *2128:A 23.4971 
5 *192:8 *2090:A 43.9036 
*END

*D_NET *193 0.0035998
*CONN
*I *2344:A I *D sky130_fd_sc_hd__buf_2
*I *2291:A I *D sky130_fd_sc_hd__dlygate4sd3_1
*I *2170:Q O *D sky130_fd_sc_hd__dfrtp_1
*CAP
1 *2344:A 0
2 *2291:A 0.000175132
3 *2170:Q 0.000175132
4 *193:18 0.00157175
5 *193:16 0.00157175
6 *2291:A *2170:RESET_B 7.9566e-05
7 *2291:A *2174:RESET_B 2.64616e-05
*RES
1 *2170:Q *2291:A 49.48 
2 *2291:A *193:16 23 
3 *193:16 *193:18 30.16 
4 *193:18 *2344:A 23 
*END

*D_NET *194 0.00162482
*CONN
*I *2130:B1 I *D sky130_fd_sc_hd__o31ai_1
*I *2224:X O *D sky130_fd_sc_hd__dlygate4sd3_1
*CAP
1 *2130:B1 0.000397471
2 *2224:X 0.000143514
3 *194:8 0.000540985
4 *194:8 *231:8 0
5 *69:10 *2130:B1 1.83763e-05
6 *69:10 *194:8 0.000139647
7 *85:34 *2130:B1 8.87961e-05
8 *108:10 *194:8 0.000296026
*RES
1 *2224:X *194:8 42.0186 
2 *194:8 *2130:B1 44.4007 
*END

*D_NET *195 0.00025528
*CONN
*I *2190:D I *D sky130_fd_sc_hd__dfrtp_1
*I *2225:X O *D sky130_fd_sc_hd__dlygate4sd3_1
*CAP
1 *2190:D 0
2 *2225:X 0.00012764
3 *195:8 0.00012764
4 *195:8 *279:73 0
5 *69:10 *195:8 0
*RES
1 *2225:X *195:8 39.9057 
2 *195:8 *2190:D 38 
*END

*D_NET *196 0.00155687
*CONN
*I *2125:A1 I *D sky130_fd_sc_hd__a22o_1
*I *2083:B1 I *D sky130_fd_sc_hd__o31ai_1
*I *2226:X O *D sky130_fd_sc_hd__dlygate4sd3_1
*CAP
1 *2125:A1 0
2 *2083:B1 8.42437e-05
3 *2226:X 0.000274306
4 *196:21 7.50077e-05
5 *196:6 0.000433557
6 *196:6 *2085:A1 2.92566e-05
7 *196:6 *309:6 3.22051e-05
8 *196:21 *278:21 0.000194327
9 *196:21 *278:32 1.14452e-05
10 *196:21 *279:94 9.64022e-05
11 *2085:A2 *2083:B1 4.9662e-05
12 *2085:A2 *196:6 0.000218503
13 *53:8 *196:6 5.79559e-05
*RES
1 *2226:X *196:6 29.3386 
2 *196:6 *2083:B1 24.595 
3 *196:6 *196:21 32.61 
4 *196:21 *2125:A1 23 
*END

*D_NET *197 0.000732027
*CONN
*I *2188:D I *D sky130_fd_sc_hd__dfrtp_1
*I *2227:X O *D sky130_fd_sc_hd__dlygate4sd3_1
*CAP
1 *2188:D 0
2 *2227:X 0.000323161
3 *197:10 0.000323161
4 *197:10 *2189:RESET_B 4.21594e-06
5 *67:10 *197:10 4.08641e-05
6 *180:61 *197:10 2.61699e-05
7 *180:63 *197:10 1.44546e-05
*RES
1 *2227:X *197:10 43.1371 
2 *197:10 *2188:D 38 
*END

*D_NET *198 0.00427735
*CONN
*I *2046:C_N I *D sky130_fd_sc_hd__nor3b_1
*I *2156:B I *D sky130_fd_sc_hd__nor2_1
*I *2153:A I *D sky130_fd_sc_hd__nand3_1
*I *2157:B I *D sky130_fd_sc_hd__xor2_1
*I *2155:A1 I *D sky130_fd_sc_hd__o21ai_0
*I *2228:X O *D sky130_fd_sc_hd__dlygate4sd3_1
*CAP
1 *2046:C_N 0
2 *2156:B 0
3 *2153:A 0.000259221
4 *2157:B 8.30001e-05
5 *2155:A1 5.81947e-05
6 *2228:X 0.000285286
7 *198:61 0.00020656
8 *198:43 0.000337949
9 *198:14 0.000320551
10 *198:10 0.000848229
11 *198:8 0.000826326
12 *2153:A *2153:B 2.46468e-05
13 *2153:A *2159:B1 2.93845e-05
14 *198:8 *280:55 0.000187363
15 *198:10 *2158:B 0
16 *198:10 *199:8 6.67555e-05
17 *198:10 *206:10 0.000114092
18 *198:10 *280:72 0
19 *198:14 *205:10 0
20 *198:14 *206:10 1.01436e-05
21 *198:43 *2158:B 0
22 *198:43 *280:72 0
23 *198:61 *2046:B 0.000240439
24 *198:61 *2156:A 3.04516e-05
25 *198:61 *203:29 5.56759e-05
26 *198:61 *280:72 3.20914e-05
27 *2158:C *198:61 5.50049e-05
28 *148:20 *2153:A 7.67782e-06
29 *149:10 *2153:A 1.05235e-05
30 *149:10 *198:14 0
31 *152:10 *2155:A1 7.88828e-05
32 *152:10 *2157:B 6.17437e-06
33 *152:10 *198:14 0
34 *177:37 *198:10 8.43728e-05
35 *177:37 *198:14 1.83564e-05
*RES
1 *2228:X *198:8 41.9564 
2 *198:8 *198:10 8.94857 
3 *198:10 *198:14 18.3143 
4 *198:14 *2155:A1 24.5743 
5 *198:14 *2157:B 24.5743 
6 *198:10 *2153:A 41.9771 
7 *198:8 *198:43 16.9057 
8 *198:43 *198:61 35.2096 
9 *198:61 *2156:B 23 
10 *198:43 *2046:C_N 23 
*END

*D_NET *199 0.000340796
*CONN
*I *2164:D I *D sky130_fd_sc_hd__dfrtp_1
*I *2229:X O *D sky130_fd_sc_hd__dlygate4sd3_1
*CAP
1 *2164:D 4.17755e-05
2 *2229:X 6.06982e-05
3 *199:8 0.000102474
4 *199:8 *205:10 6.90927e-05
5 *198:10 *199:8 6.67555e-05
*RES
1 *2229:X *199:8 39.9057 
2 *199:8 *2164:D 38.6214 
*END

*D_NET *200 0.00144684
*CONN
*I *2106:B1 I *D sky130_fd_sc_hd__o21ai_0
*I *2037:A I *D sky130_fd_sc_hd__inv_1
*I *2230:X O *D sky130_fd_sc_hd__dlygate4sd3_1
*CAP
1 *2106:B1 0
2 *2037:A 3.07843e-05
3 *2230:X 0.000513902
4 *200:22 0.000483118
5 *200:22 *201:10 0.000291936
6 *2231:A *200:22 3.18571e-05
7 *73:8 *200:22 3.1231e-05
8 *124:54 *200:22 6.40115e-05
*RES
1 *2230:X *2037:A 46.8027 
2 *2230:X *200:22 48.0671 
3 *200:22 *2106:B1 38 
*END

*D_NET *201 0.00105832
*CONN
*I *2139:A1 I *D sky130_fd_sc_hd__a21oi_1
*I *2231:X O *D sky130_fd_sc_hd__dlygate4sd3_1
*CAP
1 *2139:A1 0
2 *2231:X 0.000350274
3 *201:10 0.000350274
4 *73:8 *201:10 6.58399e-05
5 *139:8 *201:10 0
6 *200:22 *201:10 0.000291936
*RES
1 *2231:X *201:10 44.5457 
2 *201:10 *2139:A1 38 
*END

*D_NET *202 0.000423032
*CONN
*I *2194:D I *D sky130_fd_sc_hd__dfrtp_1
*I *2232:X O *D sky130_fd_sc_hd__dlygate4sd3_1
*CAP
1 *2194:D 6.71846e-05
2 *2232:X 6.71846e-05
3 *2194:D *282:295 0.000234534
4 *2194:CLK *2194:D 5.41288e-05
*RES
1 *2232:X *2194:D 48.5271 
*END

*D_NET *203 0.00361194
*CONN
*I *2158:A I *D sky130_fd_sc_hd__nand3_1
*I *2046:A I *D sky130_fd_sc_hd__nor3b_1
*I *2156:A I *D sky130_fd_sc_hd__nor2_1
*I *2157:A I *D sky130_fd_sc_hd__xor2_1
*I *2233:X O *D sky130_fd_sc_hd__dlygate4sd3_1
*CAP
1 *2158:A 1.15278e-05
2 *2046:A 0
3 *2156:A 2.31321e-05
4 *2157:A 0.000454668
5 *2233:X 0
6 *203:29 0.000183355
7 *203:23 0.000770049
8 *203:6 0.00105297
9 *2156:A *2046:B 0.000143655
10 *2157:A *2165:RESET_B 0.00014411
11 *203:23 *2158:B 0
12 *203:23 *2165:RESET_B 0.000331181
13 *2158:C *2156:A 0.000187129
14 *2158:C *203:29 0.000124934
15 *2238:A *203:23 9.91024e-05
16 *176:10 *203:23 0
17 *198:61 *2156:A 3.04516e-05
18 *198:61 *203:29 5.56759e-05
*RES
1 *2233:X *203:6 38 
2 *203:6 *2157:A 47.0314 
3 *203:6 *203:23 27.7807 
4 *203:23 *203:29 3.64571 
5 *203:29 *2156:A 25.0507 
6 *203:29 *2046:A 23 
7 *203:23 *2158:A 23.4971 
*END

*D_NET *204 0.00299613
*CONN
*I *2280:A I *D sky130_fd_sc_hd__dlygate4sd3_1
*I *2345:A I *D sky130_fd_sc_hd__buf_2
*I *2171:Q O *D sky130_fd_sc_hd__dfrtp_1
*CAP
1 *2280:A 0.000196237
2 *2345:A 0
3 *2171:Q 0.00015068
4 *204:14 0.000749707
5 *204:10 0.00109662
6 *204:10 *287:8 0
7 *5:9 *204:14 9.70579e-05
8 *181:14 *204:10 8.26569e-05
9 *181:14 *204:14 0.000623173
*RES
1 *2171:Q *204:10 40.8793 
2 *204:10 *204:14 34.5129 
3 *204:14 *2345:A 23 
4 *204:10 *2280:A 41.1486 
*END

*D_NET *205 0.00148583
*CONN
*I *2159:B1 I *D sky130_fd_sc_hd__o21ai_0
*I *2234:X O *D sky130_fd_sc_hd__dlygate4sd3_1
*CAP
1 *2159:B1 2.82018e-05
2 *2234:X 0.000385376
3 *205:10 0.000413578
4 *205:10 *224:10 6.17437e-06
5 *205:10 *280:55 7.95762e-05
6 *2153:A *2159:B1 2.93845e-05
7 *2155:A2 *205:10 6.02277e-06
8 *79:8 *205:10 0.000140642
9 *150:14 *205:10 0.000278679
10 *152:10 *205:10 1.14452e-05
11 *177:37 *205:10 3.76607e-05
12 *198:14 *205:10 0
13 *199:8 *205:10 6.90927e-05
*RES
1 *2234:X *205:10 48.1707 
2 *205:10 *2159:B1 38.6214 
*END

*D_NET *206 0.000747217
*CONN
*I *2165:D I *D sky130_fd_sc_hd__dfrtp_1
*I *2235:X O *D sky130_fd_sc_hd__dlygate4sd3_1
*CAP
1 *2165:D 0
2 *2235:X 0.000240511
3 *206:10 0.000240511
4 *206:10 *280:38 0.00014196
5 *198:10 *206:10 0.000114092
6 *198:14 *206:10 1.01436e-05
*RES
1 *2235:X *206:10 42.0807 
2 *206:10 *2165:D 38 
*END

*D_NET *207 0.00941469
*CONN
*I *2143:B2 I *D sky130_fd_sc_hd__o22a_1
*I *2047:B_N I *D sky130_fd_sc_hd__nor2b_1
*I *2141:A I *D sky130_fd_sc_hd__nor3_1
*I *2138:C1 I *D sky130_fd_sc_hd__a311oi_1
*I *2151:A1 I *D sky130_fd_sc_hd__a32o_1
*I *2050:A I *D sky130_fd_sc_hd__nand2_1
*I *2154:B1_N I *D sky130_fd_sc_hd__a21bo_1
*I *2162:B1_N I *D sky130_fd_sc_hd__a21boi_0
*I *2236:X O *D sky130_fd_sc_hd__dlygate4sd3_1
*CAP
1 *2143:B2 5.69457e-05
2 *2047:B_N 0
3 *2141:A 5.17137e-05
4 *2138:C1 0.000277693
5 *2151:A1 0
6 *2050:A 9.24939e-05
7 *2154:B1_N 0
8 *2162:B1_N 0.000101141
9 *2236:X 0.000800442
10 *207:98 0.000511573
11 *207:67 0.000609209
12 *207:61 0.000428662
13 *207:57 0.000696294
14 *207:48 0.000490972
15 *207:10 0.000465397
16 *207:8 0.000859028
17 *2050:A *282:247 0
18 *2050:A *345:24 0.00014196
19 *2138:C1 *2138:A1 4.04206e-05
20 *2138:C1 *219:16 1.03836e-05
21 *2138:C1 *279:10 2.64616e-05
22 *2141:A *279:10 4.5051e-05
23 *2143:B2 *213:47 2.93104e-06
24 *207:8 *345:24 9.61128e-05
25 *207:10 *345:12 0
26 *207:48 *211:31 1.14452e-05
27 *207:57 *211:31 0.000182873
28 *207:57 *219:26 0
29 *207:61 *211:31 6.69899e-05
30 *207:67 *2043:A 0
31 *207:67 *2141:B 0
32 *207:67 *219:26 0.000530399
33 *207:67 *219:33 8.72173e-05
34 *207:67 *279:10 0.00017477
35 *207:98 *2043:A 1.01436e-05
36 *207:98 *222:6 4.49877e-05
37 *207:98 *222:16 5.41288e-05
38 *207:98 *222:113 1.5532e-05
39 *2050:B *207:48 0.000308033
40 *2142:B1 *2143:B2 4.94499e-05
41 *2143:B1 *2143:B2 2.93341e-05
42 *2151:A3 *207:48 6.08032e-05
43 *2339:A *2138:C1 5.50049e-05
44 *77:8 *207:57 0
45 *80:10 *207:10 0.000141605
46 *82:10 *207:8 0.0003132
47 *85:12 *207:98 0.000487352
48 *85:19 *207:98 5.79559e-05
49 *138:12 *2138:C1 0.00014196
50 *140:43 *207:98 3.41998e-06
51 *147:10 *207:48 1.14452e-05
52 *147:10 *207:57 0.000277705
53 *147:10 *207:98 0.000164291
54 *156:8 *2162:B1_N 4.11274e-05
55 *156:8 *207:10 0.000154244
56 *161:31 *2143:B2 0
57 *175:11 *207:98 0
58 *177:10 *207:48 0
59 *177:12 *207:48 7.53384e-06
60 *177:16 *207:48 4.79641e-05
61 *177:18 *2050:A 0
62 *177:18 *207:10 0
63 *177:63 *2050:A 7.88926e-05
64 *177:99 *207:48 0
65 *177:109 *207:67 0
*RES
1 *2236:X *207:8 44.3386 
2 *207:8 *207:10 8.59643 
3 *207:10 *2162:B1_N 40.2579 
4 *207:10 *2154:B1_N 38 
5 *207:8 *2050:A 40.7757 
6 *2236:X *207:48 44.3386 
7 *207:48 *2151:A1 38 
8 *207:48 *207:57 3.66643 
9 *207:57 *207:61 17.5271 
10 *207:61 *207:67 38.2443 
11 *207:67 *2138:C1 28.4064 
12 *207:67 *2141:A 24.0979 
13 *207:61 *2047:B_N 23 
14 *207:57 *207:98 40.73 
15 *207:98 *2143:B2 39.6157 
*END

*D_NET *208 0.000936337
*CONN
*I *2052:A I *D sky130_fd_sc_hd__nand2_1
*I *2237:X O *D sky130_fd_sc_hd__dlygate4sd3_1
*CAP
1 *2052:A 7.53631e-05
2 *2237:X 0.000270948
3 *208:10 0.000346311
4 *81:16 *2052:A 0.000188934
5 *164:10 *208:10 0
6 *164:21 *208:10 0
7 *177:12 *208:10 3.17516e-05
8 *177:16 *208:10 2.30292e-05
*RES
1 *2237:X *208:10 41.8321 
2 *208:10 *2052:A 40.0507 
*END

*D_NET *209 0.00158259
*CONN
*I *2200:D I *D sky130_fd_sc_hd__dfrtp_1
*I *2238:X O *D sky130_fd_sc_hd__dlygate4sd3_1
*CAP
1 *2200:D 0.000106344
2 *2238:X 0.000518779
3 *209:10 0.000625123
4 *2052:B *209:10 0.000222113
5 *2200:CLK *2200:D 5.56356e-05
6 *2238:A *209:10 3.22051e-05
7 *44:8 *209:10 2.23884e-05
*RES
1 *2238:X *209:10 46.6793 
2 *209:10 *2200:D 40.0507 
*END

*D_NET *210 0.00784657
*CONN
*I *2141:B I *D sky130_fd_sc_hd__nor3_1
*I *2043:A I *D sky130_fd_sc_hd__nor2_1
*I *2140:A I *D sky130_fd_sc_hd__nor3_1
*I *2111:B1_N I *D sky130_fd_sc_hd__a21boi_0
*I *2057:A1 I *D sky130_fd_sc_hd__o2111ai_1
*I *2152:B I *D sky130_fd_sc_hd__or2_0
*I *2044:A1 I *D sky130_fd_sc_hd__o21ai_0
*I *2239:X O *D sky130_fd_sc_hd__dlygate4sd3_1
*CAP
1 *2141:B 0.000103071
2 *2043:A 0.000222835
3 *2140:A 0.000241659
4 *2111:B1_N 0.000130079
5 *2057:A1 3.05842e-05
6 *2152:B 0.000360814
7 *2044:A1 2.52516e-05
8 *2239:X 0.000694888
9 *210:73 0.000355135
10 *210:50 0.000478137
11 *210:24 0.000649653
12 *210:20 0.00106352
13 *2043:A *279:10 6.9312e-05
14 *2057:A1 *282:340 2.93747e-05
15 *2152:B *219:26 0.00010018
16 *210:20 *2053:B1 2.02872e-05
17 *210:20 *211:31 2.18506e-05
18 *210:24 *211:10 1.22906e-05
19 *210:24 *212:10 7.56417e-05
20 *210:24 *225:10 0
21 *2057:A2 *210:24 0.000136486
22 *2138:A2 *210:50 7.23925e-05
23 *2140:C *2111:B1_N 9.67842e-05
24 *2140:C *2140:A 0.000349818
25 *2141:C *2043:A 7.46108e-05
26 *2141:C *2141:B 0.000127263
27 *2199:CLK *2152:B 0
28 *2199:CLK *210:24 4.08376e-06
29 *42:31 *2043:A 2.05503e-05
30 *42:39 *2140:A 0.000219383
31 *42:45 *210:24 7.39034e-05
32 *42:45 *210:50 0.000141879
33 *42:70 *2044:A1 5.50049e-05
34 *42:70 *210:20 7.55718e-05
35 *81:22 *2057:A1 1.09783e-05
36 *81:22 *2152:B 0.000173026
37 *81:43 *2057:A1 5.3304e-05
38 *81:43 *210:20 0.000356724
39 *81:43 *210:24 2.19539e-05
40 *81:49 *210:20 0.000228909
41 *85:8 *210:24 9.20311e-06
42 *85:12 *2043:A 0.000185434
43 *123:8 *2111:B1_N 0.00010018
44 *123:21 *2111:B1_N 4.34745e-05
45 *140:6 *2140:A 2.93845e-05
46 *147:10 *2043:A 0.000117592
47 *147:10 *2141:B 4.6318e-06
48 *164:10 *2152:B 0
49 *165:14 *210:20 5.3304e-05
50 *165:14 *210:24 3.47781e-05
51 *165:14 *210:50 0.000137496
52 *165:27 *210:50 9.74235e-05
53 *177:18 *2152:B 0
54 *177:109 *2141:B 4.63333e-05
55 *207:67 *2043:A 0
56 *207:67 *2141:B 0
57 *207:98 *2043:A 1.01436e-05
*RES
1 *2239:X *2044:A1 46.6214 
2 *2239:X *210:20 48.15 
3 *210:20 *210:24 4.81607 
4 *210:24 *2152:B 45.1775 
5 *210:24 *2057:A1 38.9425 
6 *210:20 *210:50 19.7229 
7 *210:50 *2111:B1_N 26.0036 
8 *210:50 *2140:A 28.3857 
9 *2140:A *210:73 38.6214 
10 *210:73 *2043:A 43.7171 
11 *210:73 *2141:B 40.2579 
*END

*D_NET *211 0.002568
*CONN
*I *2151:A2 I *D sky130_fd_sc_hd__a32o_1
*I *2053:B1 I *D sky130_fd_sc_hd__a21oi_1
*I *2240:X O *D sky130_fd_sc_hd__dlygate4sd3_1
*CAP
1 *2151:A2 0
2 *2053:B1 6.21376e-05
3 *2240:X 0.000166457
4 *211:31 0.000454848
5 *211:12 0.000516985
6 *211:10 0.000166457
7 *211:10 *2111:A1 0
8 *211:31 *219:26 0
9 *2151:A3 *211:31 1.14452e-05
10 *2241:A *2053:B1 5.70419e-05
11 *2254:A *211:10 3.71251e-05
12 *42:70 *2053:B1 0.000104958
13 *42:70 *211:31 0.000126114
14 *77:8 *211:31 3.56537e-05
15 *81:43 *2053:B1 0.000228903
16 *81:43 *211:10 3.47781e-05
17 *165:14 *211:10 0.000110913
18 *165:14 *211:31 0.000138444
19 *207:48 *211:31 1.14452e-05
20 *207:57 *211:31 0.000182873
21 *207:61 *211:31 6.69899e-05
22 *210:20 *2053:B1 2.02872e-05
23 *210:20 *211:31 2.18506e-05
24 *210:24 *211:10 1.22906e-05
*RES
1 *2240:X *211:10 41.0036 
2 *211:10 *211:12 15 
3 *211:12 *2053:B1 26.0036 
4 *211:12 *211:31 39.4664 
5 *211:31 *2151:A2 23 
*END

*D_NET *212 0.000948562
*CONN
*I *2199:D I *D sky130_fd_sc_hd__dfstp_2
*I *2241:X O *D sky130_fd_sc_hd__dlygate4sd3_1
*CAP
1 *2199:D 5.94662e-05
2 *2241:X 0.000215384
3 *212:10 0.00027485
4 *2199:D *282:340 7.73389e-05
5 *212:10 *282:308 0
6 *2199:CLK *2199:D 5.3304e-05
7 *2199:CLK *212:10 3.47781e-05
8 *42:70 *212:10 7.15126e-05
9 *81:43 *212:10 8.62876e-05
10 *210:24 *212:10 7.56417e-05
*RES
1 *2241:X *212:10 41.8321 
2 *212:10 *2199:D 39.5743 
*END

*D_NET *213 0.0117321
*CONN
*I *2069:A_N I *D sky130_fd_sc_hd__nand2b_1
*I *2041:C I *D sky130_fd_sc_hd__or4_1
*I *2074:B I *D sky130_fd_sc_hd__nand2_1
*I *2063:B I *D sky130_fd_sc_hd__nand2b_1
*I *2040:B I *D sky130_fd_sc_hd__nor3_1
*I *2039:B I *D sky130_fd_sc_hd__nor2_1
*I *2105:B I *D sky130_fd_sc_hd__nand4b_1
*I *2143:A1 I *D sky130_fd_sc_hd__o22a_1
*I *2142:A1 I *D sky130_fd_sc_hd__o21ai_0
*I *2242:X O *D sky130_fd_sc_hd__dlygate4sd3_1
*CAP
1 *2069:A_N 0.000585279
2 *2041:C 0
3 *2074:B 0.000236931
4 *2063:B 6.69944e-06
5 *2040:B 7.0348e-05
6 *2039:B 0
7 *2105:B 0.000522265
8 *2143:A1 0
9 *2142:A1 7.86274e-05
10 *2242:X 0.000147318
11 *213:103 0.000369838
12 *213:92 0.000244899
13 *213:88 0.00021768
14 *213:62 0.000553777
15 *213:60 0.00020085
16 *213:58 0.000771343
17 *213:47 0.000511359
18 *213:20 0.00116783
19 *213:8 0.00091123
20 *2040:B *2041:B 9.75779e-05
21 *2040:B *216:39 0.000182832
22 *2063:B *2069:B 1.28818e-05
23 *2069:A_N *2069:B 3.70013e-05
24 *2069:A_N *2197:RESET_B 0.000164291
25 *2074:B *2197:RESET_B 0
26 *2105:B *2105:D 0.000137443
27 *2105:B *216:8 0.000518207
28 *2105:B *216:30 8.4017e-05
29 *2105:B *220:10 2.89609e-05
30 *2142:A1 *219:16 9.19022e-06
31 *213:20 *2195:RESET_B 0.000172111
32 *213:47 *222:16 5.4721e-05
33 *213:58 *2195:RESET_B 9.04375e-05
34 *213:58 *2197:RESET_B 0.000153677
35 *213:62 *216:30 2.64616e-05
36 *213:88 *2039:A 1.14154e-05
37 *213:88 *216:30 8.48502e-06
38 *213:88 *216:39 9.91895e-05
39 *213:92 *2197:RESET_B 0
40 *213:92 *222:28 1.14452e-05
41 *213:103 *2197:RESET_B 0
42 *2051:B *213:20 0.000160586
43 *2078:B *2069:A_N 1.11037e-05
44 *2143:B2 *213:47 2.93104e-06
45 *2245:A *2069:A_N 0.000150977
46 *2245:A *213:58 0.000191439
47 *2248:A *2105:B 0.000225399
48 *2249:A *213:20 8.36198e-05
49 *2249:A *213:58 4.84405e-05
50 *4:18 *213:20 3.39586e-05
51 *4:25 *213:20 8.44257e-05
52 *4:34 *213:20 3.32932e-05
53 *42:27 *213:47 1.38508e-05
54 *74:10 *2142:A1 8.62876e-05
55 *88:12 *2074:B 4.83778e-05
56 *93:8 *2063:B 6.39489e-06
57 *93:8 *2069:A_N 0.000434833
58 *120:10 *2105:B 4.00259e-06
59 *125:33 *213:8 0.000182213
60 *140:19 *213:47 1.30606e-05
61 *140:43 *213:47 0
62 *140:62 *2069:A_N 6.17437e-06
63 *143:8 *2069:A_N 3.3345e-05
64 *159:22 *2142:A1 2.26406e-05
65 *159:22 *213:47 8.34173e-05
66 *161:31 *213:47 0.000655168
67 *161:46 *2074:B 5.77398e-05
68 *161:46 *213:92 1.86869e-05
69 *161:46 *213:103 6.03841e-05
70 *162:10 *213:88 5.50049e-05
71 *162:14 *213:20 0
72 *175:11 *2142:A1 4.23714e-05
73 *175:11 *213:20 0.000182704
74 *175:11 *213:47 1.23033e-05
75 *175:47 *213:20 5.1866e-05
76 *180:87 *2074:B 0.000138444
*RES
1 *2242:X *213:8 40.0507 
2 *213:8 *213:20 43.3193 
3 *213:20 *2142:A1 39.9057 
4 *213:20 *213:47 36.0191 
5 *213:47 *2143:A1 23 
6 *213:8 *213:58 4.43286 
7 *213:58 *213:60 15 
8 *213:60 *213:62 0.621429 
9 *213:62 *2105:B 35.8636 
10 *213:62 *2039:B 23 
11 *213:60 *213:88 3.52143 
12 *213:88 *213:92 15.8493 
13 *213:92 *2040:B 40.0507 
14 *213:92 *213:103 2.61 
15 *213:103 *2063:B 38.1502 
16 *213:103 *2074:B 43.2821 
17 *213:88 *2041:C 23 
18 *213:58 *2069:A_N 48.5643 
*END

*D_NET *214 0.000344537
*CONN
*I *2195:D I *D sky130_fd_sc_hd__dfrtp_1
*I *2243:X O *D sky130_fd_sc_hd__dlygate4sd3_1
*CAP
1 *2195:D 0
2 *2243:X 0.000136452
3 *214:10 0.000136452
4 *214:10 *219:16 4.59435e-06
5 *140:43 *214:10 6.70389e-05
*RES
1 *2243:X *214:10 40.5271 
2 *214:10 *2195:D 38 
*END

*D_NET *215 0.0027638
*CONN
*I *2346:A I *D sky130_fd_sc_hd__buf_2
*I *2277:A I *D sky130_fd_sc_hd__dlygate4sd3_1
*I *2172:Q O *D sky130_fd_sc_hd__dfrtp_1
*CAP
1 *2346:A 0
2 *2277:A 0.000119361
3 *2172:Q 0.00021804
4 *215:23 0.00097616
5 *215:10 0.00131356
6 *215:10 *2172:RESET_B 4.19048e-05
7 *215:10 *281:197 0
8 *215:10 *284:8 2.79004e-05
9 *215:23 *2073:B 0
10 *215:23 *269:23 0
11 *215:23 *283:8 6.6869e-05
12 *96:10 *215:10 0
13 *96:10 *215:23 0
*RES
1 *2172:Q *215:10 41.8321 
2 *215:10 *2277:A 40.0507 
3 *215:10 *215:23 34.5129 
4 *215:23 *2346:A 23 
*END

*D_NET *216 0.00743018
*CONN
*I *2074:A I *D sky130_fd_sc_hd__nand2_1
*I *2063:A_N I *D sky130_fd_sc_hd__nand2b_1
*I *2069:B I *D sky130_fd_sc_hd__nand2b_1
*I *2041:B I *D sky130_fd_sc_hd__or4_1
*I *2040:A I *D sky130_fd_sc_hd__nor3_1
*I *2039:A I *D sky130_fd_sc_hd__nor2_1
*I *2144:A I *D sky130_fd_sc_hd__nor2_1
*I *2105:C I *D sky130_fd_sc_hd__nand4b_1
*I *2244:X O *D sky130_fd_sc_hd__dlygate4sd3_1
*CAP
1 *2074:A 6.92033e-05
2 *2063:A_N 1.17411e-05
3 *2069:B 0.000322033
4 *2041:B 0.000121994
5 *2040:A 0
6 *2039:A 2.0995e-05
7 *2144:A 7.68887e-05
8 *2105:C 5.70763e-05
9 *2244:X 0
10 *216:63 0.000496439
11 *216:59 0.000381098
12 *216:46 0.00031134
13 *216:39 0.000195505
14 *216:30 0.000385947
15 *216:8 0.000394553
16 *216:4 0.00047015
17 *2069:B *221:10 2.89076e-05
18 *2144:A *2105:A_N 2.27362e-05
19 *216:39 *2041:D 5.50049e-05
20 *216:39 *229:12 0.00014196
21 *216:59 *229:12 1.76557e-05
22 *2040:B *2041:B 9.75779e-05
23 *2040:B *216:39 0.000182832
24 *2063:B *2069:B 1.28818e-05
25 *2069:A_N *2069:B 3.70013e-05
26 *2105:B *216:8 0.000518207
27 *2105:B *216:30 8.4017e-05
28 *2137:A1 *2144:A 0
29 *2248:A *216:30 0.000223704
30 *2249:A *2069:B 0.000265477
31 *93:8 *2069:B 0.000182543
32 *93:8 *216:63 9.69279e-05
33 *97:14 *2074:A 0.000169683
34 *97:14 *216:59 0.000192087
35 *143:8 *2069:B 0.00049993
36 *144:10 *2105:C 9.168e-05
37 *144:10 *2144:A 0.000102629
38 *145:14 *2105:C 8.62783e-05
39 *145:14 *2144:A 0.000141888
40 *160:10 *216:8 0.000272368
41 *160:10 *216:30 0.000393967
42 *161:46 *2074:A 6.84987e-06
43 *161:46 *216:59 0
44 *171:8 *2074:A 3.28979e-05
45 *171:8 *216:59 1.19692e-05
46 *213:62 *216:30 2.64616e-05
47 *213:88 *2039:A 1.14154e-05
48 *213:88 *216:30 8.48502e-06
49 *213:88 *216:39 9.91895e-05
*RES
1 *2244:X *216:4 23 
2 *216:4 *216:8 21.815 
3 *216:8 *2105:C 39.2014 
4 *216:8 *2144:A 40.61 
5 *216:4 *216:30 5.88286 
6 *216:30 *2039:A 23.4971 
7 *216:30 *216:39 4.90929 
8 *216:39 *2040:A 23 
9 *216:39 *216:46 0.849286 
10 *216:46 *2041:B 25.0507 
11 *216:46 *216:59 18.2314 
12 *216:59 *216:63 18.0036 
13 *216:63 *2069:B 32.5182 
14 *216:63 *2063:A_N 23.4971 
15 *216:59 *2074:A 40.2579 
*END

*D_NET *217 0.00151638
*CONN
*I *2146:B1 I *D sky130_fd_sc_hd__a21oi_1
*I *2245:X O *D sky130_fd_sc_hd__dlygate4sd3_1
*CAP
1 *2146:B1 0.00011081
2 *2245:X 0.000276104
3 *217:10 0.000386914
4 *217:10 *222:16 0.000350168
5 *2194:CLK *2146:B1 5.56356e-05
6 *2195:CLK *2146:B1 0.00023506
7 *75:10 *2146:B1 7.51453e-06
8 *125:33 *217:10 9.41704e-05
*RES
1 *2245:X *217:10 43.8207 
2 *217:10 *2146:B1 41.0036 
*END

*D_NET *218 0.000638982
*CONN
*I *2196:D I *D sky130_fd_sc_hd__dfrtp_1
*I *2246:X O *D sky130_fd_sc_hd__dlygate4sd3_1
*CAP
1 *2196:D 0
2 *2246:X 0.000177389
3 *218:10 0.000177389
4 *218:10 *219:33 0.000141038
5 *124:25 *218:10 0.000143166
*RES
1 *2246:X *218:10 41.48 
2 *218:10 *2196:D 38 
*END

*D_NET *219 0.0126221
*CONN
*I *2051:A I *D sky130_fd_sc_hd__nand2_1
*I *2038:A I *D sky130_fd_sc_hd__inv_1
*I *2138:A1 I *D sky130_fd_sc_hd__a311oi_1
*I *2148:A I *D sky130_fd_sc_hd__nand2_1
*I *2145:A I *D sky130_fd_sc_hd__nand3_1
*I *2152:A I *D sky130_fd_sc_hd__or2_0
*I *2247:X O *D sky130_fd_sc_hd__dlygate4sd3_1
*CAP
1 *2051:A 0
2 *2038:A 2.75376e-05
3 *2138:A1 0.000110698
4 *2148:A 0
5 *2145:A 5.60432e-05
6 *2152:A 0
7 *2247:X 0
8 *219:85 0.000285865
9 *219:50 0.000386875
10 *219:33 0.00104507
11 *219:26 0.000683965
12 *219:20 0.00133065
13 *219:16 0.00130335
14 *219:6 0.00121027
15 *219:4 0.000320477
16 *219:16 *279:10 0.000137651
17 *219:26 *225:10 0.000582829
18 *219:85 *222:136 5.67058e-05
19 *2051:B *219:85 0.000448702
20 *2137:A1 *219:33 0.000219882
21 *2137:A1 *219:50 0.000216712
22 *2138:A2 *2138:A1 0.000139346
23 *2138:A2 *219:26 9.80465e-05
24 *2138:C1 *2138:A1 4.04206e-05
25 *2138:C1 *219:16 1.03836e-05
26 *2141:C *2138:A1 0
27 *2141:C *219:16 9.5877e-05
28 *2142:A1 *219:16 9.19022e-06
29 *2145:B *2145:A 9.5877e-05
30 *2148:B *219:50 0.000490918
31 *2151:A3 *219:26 0
32 *2152:B *219:26 0.00010018
33 *2339:A *2138:A1 5.50106e-05
34 *4:34 *219:85 0.000213974
35 *42:39 *219:26 0.000192087
36 *74:10 *219:16 0.000137351
37 *77:8 *219:26 6.93553e-05
38 *81:16 *219:26 9.84794e-05
39 *81:22 *219:26 1.22906e-05
40 *85:8 *219:26 7.90568e-05
41 *88:18 *219:50 0.000307863
42 *93:56 *219:50 1.21972e-05
43 *124:14 *219:33 1.75666e-05
44 *124:25 *219:33 0.000333563
45 *124:61 *219:33 0.000137163
46 *124:61 *219:50 0.00010403
47 *138:12 *2138:A1 0.00010018
48 *140:43 *219:16 0
49 *141:8 *219:33 0
50 *144:10 *219:33 0
51 *146:10 *219:50 4.4859e-06
52 *157:21 *219:50 0.000267173
53 *159:8 *219:16 9.34933e-05
54 *159:38 *2038:A 2.96912e-05
55 *159:38 *219:6 2.18409e-05
56 *159:38 *219:16 2.33926e-05
57 *159:38 *219:85 4.5051e-05
58 *164:21 *219:26 0
59 *177:109 *219:33 0
60 *207:57 *219:26 0
61 *207:67 *219:26 0.000530399
62 *207:67 *219:33 8.72173e-05
63 *211:31 *219:26 0
64 *214:10 *219:16 4.59435e-06
65 *218:10 *219:33 0.000141038
*RES
1 *2247:X *219:4 23 
2 *219:4 *219:6 0.621429 
3 *219:6 *219:16 45.66 
4 *219:16 *219:20 15.6214 
5 *219:20 *219:26 32.5657 
6 *219:26 *2152:A 23 
7 *219:20 *219:33 15.2871 
8 *219:33 *2145:A 39.0979 
9 *219:33 *219:50 27.6564 
10 *219:50 *2148:A 23 
11 *219:16 *2138:A1 26.5214 
12 *219:6 *2038:A 23.8234 
13 *219:4 *219:85 37.8507 
14 *219:85 *2051:A 23 
*END

*D_NET *220 0.0009098
*CONN
*I *2149:A2 I *D sky130_fd_sc_hd__a21oi_1
*I *2248:X O *D sky130_fd_sc_hd__dlygate4sd3_1
*CAP
1 *2149:A2 3.05556e-05
2 *2248:X 0.000305194
3 *220:10 0.000335749
4 *2105:B *220:10 2.89609e-05
5 *4:10 *220:10 0.000191008
6 *76:8 *2149:A2 1.83327e-05
*RES
1 *2248:X *220:10 43.6964 
2 *220:10 *2149:A2 38.6214 
*END

*D_NET *221 0.00110239
*CONN
*I *2197:D I *D sky130_fd_sc_hd__dfrtp_1
*I *2249:X O *D sky130_fd_sc_hd__dlygate4sd3_1
*CAP
1 *2197:D 0.000273852
2 *2249:X 0.000136109
3 *221:10 0.000409961
4 *221:10 *2197:RESET_B 8.4047e-05
5 *2069:B *221:10 2.89076e-05
6 *143:8 *221:10 5.50049e-05
7 *175:47 *221:10 0
8 *180:87 *2197:D 0.00011451
*RES
1 *2249:X *221:10 40.2993 
2 *221:10 *2197:D 41.9771 
*END

*D_NET *222 0.0181331
*CONN
*I *2064:A I *D sky130_fd_sc_hd__or3_1
*I *2070:A I *D sky130_fd_sc_hd__or3_1
*I *2129:B2 I *D sky130_fd_sc_hd__a32oi_1
*I *2151:B2 I *D sky130_fd_sc_hd__a32o_1
*I *2075:A I *D sky130_fd_sc_hd__or3_1
*I *2120:A1 I *D sky130_fd_sc_hd__o21ai_0
*I *2094:A I *D sky130_fd_sc_hd__nand2_1
*I *2080:A1 I *D sky130_fd_sc_hd__o31ai_1
*I *2036:A I *D sky130_fd_sc_hd__inv_1
*I *2105:D I *D sky130_fd_sc_hd__nand4b_1
*I *2041:A I *D sky130_fd_sc_hd__or4_1
*I *2250:X O *D sky130_fd_sc_hd__dlygate4sd3_1
*CAP
1 *2064:A 5.58813e-05
2 *2070:A 0
3 *2129:B2 0
4 *2151:B2 0.000214203
5 *2075:A 0.000627308
6 *2120:A1 4.61388e-05
7 *2094:A 9.62595e-05
8 *2080:A1 0
9 *2036:A 0
10 *2105:D 0.00032254
11 *2041:A 0
12 *2250:X 3.83786e-05
13 *222:154 0.000224523
14 *222:148 0.000329498
15 *222:136 0.00059378
16 *222:113 0.0010195
17 *222:84 0.000521815
18 *222:78 0.00112468
19 *222:71 0.000291445
20 *222:58 0.000831842
21 *222:37 0.00110838
22 *222:28 0.000439613
23 *222:16 0.00115036
24 *222:6 0.000882252
25 *2064:A *2075:B 2.64616e-05
26 *2151:B2 *282:351 0.000171552
27 *222:6 *280:6 0.000143259
28 *222:16 *280:6 1.3523e-05
29 *222:28 *2197:RESET_B 1.69668e-05
30 *222:28 *282:409 0.000232815
31 *222:58 *2147:B1 0.000163352
32 *222:58 *229:30 2.64616e-05
33 *222:58 *229:32 0.000162243
34 *222:58 *229:73 0.00021039
35 *222:84 *270:10 0.000188512
36 *222:136 *2042:B 0.000137651
37 *222:136 *2128:B 0
38 *222:148 *2075:B 5.41288e-05
39 *222:154 *2070:B 0.000338303
40 *222:154 *229:112 6.25829e-05
41 *2052:B *2151:B2 3.47781e-05
42 *2057:C1 *2151:B2 0.000274226
43 *2064:C *2064:A 2.18409e-05
44 *2064:C *2075:A 0.000443679
45 *2064:C *222:148 7.73389e-05
46 *2105:B *2105:D 0.000137443
47 *2129:A1 *222:136 4.00259e-06
48 *2245:A *222:28 0.000267768
49 *42:10 *222:136 0.000180224
50 *83:10 *2151:B2 0.000111852
51 *83:10 *222:136 0.000340424
52 *85:19 *222:6 1.59071e-05
53 *98:10 *2075:A 1.94812e-05
54 *98:10 *222:154 0
55 *100:34 *222:71 5.65824e-05
56 *100:34 *222:84 0
57 *100:49 *2094:A 0.000137361
58 *100:49 *2120:A1 0.000128501
59 *125:33 *222:16 1.6891e-05
60 *125:33 *222:28 0.000763377
61 *125:33 *222:37 3.0983e-05
62 *134:10 *222:136 0.000141052
63 *140:43 *222:16 0.000650298
64 *140:62 *222:16 0.000206306
65 *140:62 *222:37 0.000160348
66 *140:62 *222:58 0.00021039
67 *141:8 *222:16 0
68 *157:21 *222:58 0
69 *157:21 *222:71 4.6318e-06
70 *159:22 *222:16 9.85586e-06
71 *160:10 *222:58 0.000136685
72 *161:8 *222:28 0
73 *161:14 *222:136 0.00013961
74 *161:31 *222:16 2.27347e-05
75 *161:46 *222:28 0
76 *161:46 *222:154 0
77 *161:54 *2094:A 5.3304e-05
78 *161:54 *2120:A1 9.77405e-05
79 *161:54 *222:84 2.37544e-05
80 *162:10 *222:28 0.00013897
81 *170:10 *222:37 8.3843e-05
82 *170:10 *222:58 5.46706e-05
83 *172:10 *222:136 7.9199e-05
84 *177:99 *2151:B2 2.95125e-05
85 *177:99 *222:113 2.70366e-05
86 *177:109 *222:16 0
87 *177:109 *222:113 0
88 *180:10 *222:154 6.6869e-05
89 *180:19 *222:154 6.07611e-06
90 *181:86 *222:78 8.31134e-05
91 *181:86 *222:84 0.000178946
92 *181:127 *222:84 1.12487e-05
93 *207:98 *222:6 4.49877e-05
94 *207:98 *222:16 5.41288e-05
95 *207:98 *222:113 1.5532e-05
96 *213:47 *222:16 5.4721e-05
97 *213:92 *222:28 1.14452e-05
98 *217:10 *222:16 0.000350168
99 *219:85 *222:136 5.67058e-05
*RES
1 *2250:X *222:6 24.5743 
2 *222:6 *222:16 30.3907 
3 *222:16 *222:28 42.4493 
4 *222:28 *2041:A 38 
5 *222:16 *222:37 2.25786 
6 *222:37 *2105:D 42.8057 
7 *222:37 *222:58 29.0805 
8 *222:58 *2036:A 23 
9 *222:58 *222:71 32.61 
10 *222:71 *2080:A1 23 
11 *222:71 *222:78 3.48 
12 *222:78 *222:84 38.5964 
13 *222:84 *2094:A 25.0714 
14 *222:84 *2120:A1 24.5743 
15 *222:78 *2075:A 35.0557 
16 *222:6 *222:113 18.8114 
17 *222:113 *2151:B2 44.09 
18 *222:113 *222:136 30.5979 
19 *222:136 *2129:B2 23 
20 *2075:A *222:148 24.5743 
21 *222:148 *222:154 35.4271 
22 *222:154 *2070:A 23 
23 *222:148 *2064:A 24.0979 
*END

*D_NET *223 0.000289881
*CONN
*I *2198:D I *D sky130_fd_sc_hd__dfrtp_1
*I *2251:X O *D sky130_fd_sc_hd__dlygate4sd3_1
*CAP
1 *2198:D 7.89266e-05
2 *2251:X 7.89266e-05
3 *177:99 *2198:D 7.40718e-05
4 *177:109 *2198:D 5.79559e-05
*RES
1 *2251:X *2198:D 48.0507 
*END

*D_NET *224 0.000726487
*CONN
*I *2317:A I *D sky130_fd_sc_hd__dlygate4sd3_1
*I *2252:X O *D sky130_fd_sc_hd__dlygate4sd3_1
*CAP
1 *2317:A 0
2 *2252:X 0.000202048
3 *224:10 0.000202048
4 *224:10 *280:55 1.66123e-05
5 *2160:B *224:10 2.8133e-05
6 *150:14 *224:10 0.000218688
7 *151:10 *224:10 5.27824e-05
8 *205:10 *224:10 6.17437e-06
*RES
1 *2252:X *224:10 41.8321 
2 *224:10 *2317:A 38 
*END

*D_NET *225 0.00176604
*CONN
*I *2047:A I *D sky130_fd_sc_hd__nor2b_1
*I *2253:X O *D sky130_fd_sc_hd__dlygate4sd3_1
*CAP
1 *2047:A 0
2 *2253:X 0.000293649
3 *225:10 0.000293649
4 *81:16 *225:10 5.50049e-05
5 *81:22 *225:10 0.000344356
6 *85:8 *225:10 0.000196549
7 *210:24 *225:10 0
8 *219:26 *225:10 0.000582829
*RES
1 *2253:X *225:10 46.5136 
2 *225:10 *2047:A 38 
*END

*D_NET *226 0.00534199
*CONN
*I *2314:A I *D sky130_fd_sc_hd__dlygate4sd3_1
*I *2347:A I *D sky130_fd_sc_hd__buf_2
*I *2173:Q O *D sky130_fd_sc_hd__dfrtp_1
*CAP
1 *2314:A 0
2 *2347:A 0
3 *2173:Q 0
4 *226:23 0.000237301
5 *226:10 0.00243369
6 *226:4 0.00267099
*RES
1 *2173:Q *226:4 23 
2 *226:4 *226:10 40.2064 
3 *226:10 *2347:A 23 
4 *226:4 *226:23 33.9564 
5 *226:23 *2314:A 23 
*END

*D_NET *227 0.000491205
*CONN
*I *2049:B1 I *D sky130_fd_sc_hd__a21o_1
*I *2254:X O *D sky130_fd_sc_hd__dlygate4sd3_1
*CAP
1 *2049:B1 0.000245603
2 *2254:X 0.000245603
*RES
1 *2254:X *2049:B1 49.9771 
*END

*D_NET *228 0.000369965
*CONN
*I *2201:D I *D sky130_fd_sc_hd__dfrtp_1
*I *2255:X O *D sky130_fd_sc_hd__dlygate4sd3_1
*CAP
1 *2201:D 0
2 *2255:X 0.000157477
3 *228:10 0.000157477
4 *228:10 *2201:RESET_B 0
5 *228:10 *261:19 5.50106e-05
*RES
1 *2255:X *228:10 40.175 
2 *228:10 *2201:D 38 
*END

*D_NET *229 0.0117125
*CONN
*I *2070:B I *D sky130_fd_sc_hd__or3_1
*I *2064:B I *D sky130_fd_sc_hd__or3_1
*I *2075:B I *D sky130_fd_sc_hd__or3_1
*I *2078:A I *D sky130_fd_sc_hd__nand2_1
*I *2105:A_N I *D sky130_fd_sc_hd__nand4b_1
*I *2147:B1 I *D sky130_fd_sc_hd__a21oi_1
*I *2079:B I *D sky130_fd_sc_hd__nand2_1
*I *2101:B I *D sky130_fd_sc_hd__or3_1
*I *2097:B I *D sky130_fd_sc_hd__or3_1
*I *2040:C I *D sky130_fd_sc_hd__nor3_1
*I *2041:D I *D sky130_fd_sc_hd__or4_1
*I *2256:X O *D sky130_fd_sc_hd__dlygate4sd3_1
*CAP
1 *2070:B 0.000235142
2 *2064:B 0
3 *2075:B 0.000119154
4 *2078:A 0
5 *2105:A_N 0.000197003
6 *2147:B1 9.87839e-05
7 *2079:B 4.35718e-05
8 *2101:B 2.34823e-05
9 *2097:B 0
10 *2040:C 0
11 *2041:D 2.92801e-05
12 *2256:X 0
13 *229:114 0.000119154
14 *229:112 0.000468803
15 *229:90 0.00042067
16 *229:73 0.000479982
17 *229:46 0.000623291
18 *229:32 0.000863085
19 *229:30 0.000720801
20 *229:26 0.000847336
21 *229:12 0.000386346
22 *229:6 0.000580211
23 *2064:A *2075:B 2.64616e-05
24 *2075:C *229:26 2.96369e-05
25 *2075:C *229:112 7.70598e-05
26 *2079:A *229:32 2.64616e-05
27 *2082:A2 *229:46 5.50106e-05
28 *2101:C *2079:B 4.37033e-05
29 *2101:C *229:32 1.40958e-05
30 *2102:A2 *229:46 0
31 *2122:A1 *229:46 0
32 *2122:A2 *229:46 0.000246748
33 *2135:B *229:46 0
34 *2144:A *2105:A_N 2.27362e-05
35 *2144:B *2105:A_N 3.64337e-05
36 *2144:B *2147:B1 3.50004e-06
37 *2144:B *229:90 2.42715e-05
38 *2145:C *229:90 0
39 *2148:B *229:90 0.000274514
40 *88:26 *229:46 6.12496e-06
41 *88:65 *229:30 0.000656748
42 *93:50 *229:90 8.29264e-05
43 *93:56 *229:90 5.3304e-05
44 *94:10 *2070:B 0
45 *97:14 *229:12 0.000127879
46 *97:14 *229:26 6.88819e-05
47 *100:23 *229:73 0
48 *100:23 *229:90 3.21327e-05
49 *101:6 *229:30 0.00133428
50 *101:6 *229:32 0.000442475
51 *101:74 *229:32 5.61255e-06
52 *101:74 *229:46 0.000116498
53 *102:27 *229:46 1.58805e-05
54 *140:62 *2105:A_N 2.72445e-06
55 *145:14 *2105:A_N 0.000191157
56 *157:6 *229:32 1.08234e-05
57 *160:10 *2147:B1 1.01436e-05
58 *161:46 *229:112 0
59 *180:19 *2070:B 3.07161e-05
60 *181:24 *2070:B 0
61 *181:26 *2070:B 0
62 *181:26 *229:112 0
63 *181:28 *229:12 0
64 *181:28 *229:26 0
65 *181:28 *229:112 0
66 *181:30 *229:12 0
67 *181:100 *229:46 0.000155338
68 *181:106 *229:46 0
69 *216:39 *2041:D 5.50049e-05
70 *216:39 *229:12 0.00014196
71 *216:59 *229:12 1.76557e-05
72 *222:58 *2147:B1 0.000163352
73 *222:58 *229:30 2.64616e-05
74 *222:58 *229:32 0.000162243
75 *222:58 *229:73 0.00021039
76 *222:148 *2075:B 5.41288e-05
77 *222:154 *2070:B 0.000338303
78 *222:154 *229:112 6.25829e-05
*RES
1 *2256:X *229:6 38 
2 *229:6 *229:12 22.975 
3 *229:12 *2041:D 23.6214 
4 *229:12 *2040:C 23 
5 *229:6 *229:26 4.37071 
6 *229:26 *229:30 29.9143 
7 *229:30 *229:32 5.86214 
8 *229:32 *229:46 40.6679 
9 *229:46 *2097:B 23 
10 *229:32 *2101:B 23.4971 
11 *229:32 *2079:B 24.6157 
12 *229:30 *229:73 17.9621 
13 *229:73 *2147:B1 40.2579 
14 *229:73 *229:90 35.2614 
15 *229:90 *2105:A_N 42.0807 
16 *229:90 *2078:A 38 
17 *229:26 *229:112 4.37071 
18 *229:112 *229:114 15 
19 *229:114 *2075:B 24.5743 
20 *229:114 *2064:B 23 
21 *229:112 *2070:B 43.7793 
*END

*D_NET *230 0.00216457
*CONN
*I *2042:B I *D sky130_fd_sc_hd__nor2_2
*I *2257:X O *D sky130_fd_sc_hd__dlygate4sd3_1
*CAP
1 *2042:B 5.94429e-05
2 *2257:X 0.000358041
3 *230:8 0.000417483
4 *230:8 *231:8 0
5 *230:8 *279:73 0
6 *230:8 *280:14 2.24973e-05
7 *42:10 *230:8 0.000341562
8 *161:8 *230:8 0.00012758
9 *161:14 *2042:B 5.50106e-05
10 *161:14 *230:8 0.000645299
11 *173:11 *230:8 0
12 *222:136 *2042:B 0.000137651
*RES
1 *2257:X *230:8 48.3571 
2 *230:8 *2042:B 39.5743 
*END

*D_NET *231 0.000350667
*CONN
*I *2341:A I *D sky130_fd_sc_hd__buf_6
*I *2258:X O *D sky130_fd_sc_hd__dlygate4sd3_1
*CAP
1 *2341:A 6.80978e-05
2 *2258:X 0.000107236
3 *231:8 0.000175333
4 *108:10 *231:8 0
5 *194:8 *231:8 0
6 *230:8 *231:8 0
*RES
1 *2258:X *231:8 39.9057 
2 *231:8 *2341:A 39.0979 
*END

*D_NET *232 0.000696224
*CONN
*I *2286:A I *D sky130_fd_sc_hd__dlygate4sd3_1
*I *2259:X O *D sky130_fd_sc_hd__dlygate4sd3_1
*CAP
1 *2286:A 3.7965e-05
2 *2259:X 0.000260907
3 *232:8 0.000298872
4 *2286:A *2110:S 9.84794e-05
5 *232:8 *259:14 0
6 *232:8 *281:47 0
*RES
1 *2259:X *232:8 42.7229 
2 *232:8 *2286:A 39.0979 
*END

*D_NET *233 0.000310114
*CONN
*I *2287:A I *D sky130_fd_sc_hd__dlygate4sd3_1
*I *2260:X O *D sky130_fd_sc_hd__dlygate4sd3_1
*CAP
1 *2287:A 0
2 *2260:X 4.65756e-05
3 *233:8 4.65756e-05
4 *233:8 *257:10 0.00014411
5 *233:8 *259:14 7.28526e-05
*RES
1 *2260:X *233:8 39.9057 
2 *233:8 *2287:A 38 
*END

*D_NET *234 0.000697827
*CONN
*I *2312:A I *D sky130_fd_sc_hd__dlygate4sd3_1
*I *2261:X O *D sky130_fd_sc_hd__dlygate4sd3_1
*CAP
1 *2312:A 0
2 *2261:X 0.000336318
3 *234:10 0.000336318
4 *234:10 *2181:RESET_B 2.51913e-05
*RES
1 *2261:X *234:10 43.8207 
2 *234:10 *2312:A 38 
*END

*D_NET *235 0.00063179
*CONN
*I *2313:A I *D sky130_fd_sc_hd__dlygate4sd3_1
*I *2262:X O *D sky130_fd_sc_hd__dlygate4sd3_1
*CAP
1 *2313:A 0.000168976
2 *2262:X 7.49964e-05
3 *235:8 0.000243972
4 *235:8 *281:37 0
5 *60:8 *235:8 0.000143845
*RES
1 *2262:X *235:8 39.9057 
2 *235:8 *2313:A 41.0036 
*END

*D_NET *236 0.000228574
*CONN
*I *2319:A I *D sky130_fd_sc_hd__dlygate4sd3_1
*I *2263:X O *D sky130_fd_sc_hd__dlygate4sd3_1
*CAP
1 *2319:A 0
2 *2263:X 0.000114287
3 *236:8 0.000114287
4 *236:8 *270:10 0
*RES
1 *2263:X *236:8 39.9057 
2 *236:8 *2319:A 38 
*END

*D_NET *237 0.00381775
*CONN
*I *2348:A I *D sky130_fd_sc_hd__buf_2
*I *2300:A I *D sky130_fd_sc_hd__dlygate4sd3_1
*I *2174:Q O *D sky130_fd_sc_hd__dfrtp_1
*CAP
1 *2348:A 0
2 *2300:A 0
3 *2174:Q 2.34823e-05
4 *237:21 0.000960384
5 *237:14 0.000184373
6 *237:6 0.00116824
7 *237:14 *2174:RESET_B 0
8 *237:14 *271:6 2.93845e-05
9 *237:21 *271:6 0.00145189
*RES
1 *2174:Q *237:6 23.4971 
2 *237:6 *237:14 33.2314 
3 *237:14 *2300:A 23 
4 *237:6 *237:21 28.2543 
5 *237:21 *2348:A 23 
*END

*D_NET *238 0.000573286
*CONN
*I *2323:A I *D sky130_fd_sc_hd__dlygate4sd3_1
*I *2264:X O *D sky130_fd_sc_hd__dlygate4sd3_1
*CAP
1 *2323:A 0
2 *2264:X 0.000173603
3 *238:10 0.000173603
4 *238:10 *2264:A 8.26478e-05
5 *238:10 *268:8 0.000143432
*RES
1 *2264:X *238:10 41.48 
2 *238:10 *2323:A 38 
*END

*D_NET *239 0.000316143
*CONN
*I *2321:A I *D sky130_fd_sc_hd__dlygate4sd3_1
*I *2265:X O *D sky130_fd_sc_hd__dlygate4sd3_1
*CAP
1 *2321:A 4.17433e-05
2 *2265:X 8.1782e-05
3 *239:8 0.000123525
4 *117:21 *239:8 6.90927e-05
*RES
1 *2265:X *239:8 39.9057 
2 *239:8 *2321:A 38.6214 
*END

*D_NET *240 0.000510543
*CONN
*I *2327:A I *D sky130_fd_sc_hd__dlygate4sd3_1
*I *2266:X O *D sky130_fd_sc_hd__dlygate4sd3_1
*CAP
1 *2327:A 0
2 *2266:X 0.000195904
3 *240:10 0.000195904
4 *240:10 *257:10 4.5882e-05
5 *240:10 *260:14 7.28526e-05
*RES
1 *2266:X *240:10 41.48 
2 *240:10 *2327:A 38 
*END

*D_NET *241 0.000511808
*CONN
*I *2325:A I *D sky130_fd_sc_hd__dlygate4sd3_1
*I *2267:X O *D sky130_fd_sc_hd__dlygate4sd3_1
*CAP
1 *2325:A 0
2 *2267:X 0.000202184
3 *241:10 0.000202184
4 *241:10 *281:175 4.39278e-05
5 *94:10 *241:10 6.35124e-05
*RES
1 *2267:X *241:10 41.48 
2 *241:10 *2325:A 38 
*END

*D_NET *242 0.000568141
*CONN
*I *2215:A I *D sky130_fd_sc_hd__dlygate4sd3_1
*I *2268:X O *D sky130_fd_sc_hd__dlygate4sd3_1
*CAP
1 *2215:A 0
2 *2268:X 0.000222765
3 *242:8 0.000222765
4 *242:8 *314:10 0
5 *58:10 *242:8 0
6 *118:16 *242:8 0
7 *118:29 *242:8 1.83667e-05
8 *179:16 *242:8 4.9149e-05
9 *179:22 *242:8 5.50955e-05
*RES
1 *2268:X *242:8 42.7229 
2 *242:8 *2215:A 38 
*END

*D_NET *243 0.000347431
*CONN
*I *2329:A I *D sky130_fd_sc_hd__dlygate4sd3_1
*I *2269:X O *D sky130_fd_sc_hd__dlygate4sd3_1
*CAP
1 *2329:A 6.16112e-05
2 *2269:X 0.000112104
3 *243:8 0.000173716
*RES
1 *2269:X *243:8 39.9057 
2 *243:8 *2329:A 39.0979 
*END

*D_NET *244 8.54939e-05
*CONN
*I *2331:A I *D sky130_fd_sc_hd__dlygate4sd3_1
*I *2270:X O *D sky130_fd_sc_hd__dlygate4sd3_1
*CAP
1 *2331:A 4.27469e-05
2 *2270:X 4.27469e-05
*RES
1 *2270:X *2331:A 46.6214 
*END

*D_NET *245 0.00123549
*CONN
*I *2217:A I *D sky130_fd_sc_hd__dlygate4sd3_1
*I *2271:X O *D sky130_fd_sc_hd__dlygate4sd3_1
*CAP
1 *2217:A 0
2 *2271:X 0.000492621
3 *245:10 0.000492621
4 *245:10 *2259:A 5.72217e-05
5 *245:10 *259:10 2.54046e-05
6 *245:10 *277:200 0
7 *245:10 *281:47 0
8 *2109:A1 *245:10 8.91405e-05
9 *186:10 *245:10 7.84832e-05
*RES
1 *2271:X *245:10 47.5907 
2 *245:10 *2217:A 38 
*END

*D_NET *246 0.000742756
*CONN
*I *2219:A I *D sky130_fd_sc_hd__dlygate4sd3_1
*I *2272:X O *D sky130_fd_sc_hd__dlygate4sd3_1
*CAP
1 *2219:A 4.30656e-05
2 *2272:X 0.000223059
3 *246:10 0.000266124
4 *246:10 *270:6 5.68958e-05
5 *100:49 *2219:A 0.000100069
6 *100:49 *246:10 5.35429e-05
7 *181:127 *246:10 0
*RES
1 *2272:X *246:10 41.48 
2 *246:10 *2219:A 39.0979 
*END

*D_NET *247 6.83309e-05
*CONN
*I *2221:A I *D sky130_fd_sc_hd__dlygate4sd3_1
*I *2273:X O *D sky130_fd_sc_hd__dlygate4sd3_1
*CAP
1 *2221:A 3.41655e-05
2 *2273:X 3.41655e-05
*RES
1 *2273:X *2221:A 46.6214 
*END

*D_NET *248 0.00405392
*CONN
*I *2306:A I *D sky130_fd_sc_hd__dlygate4sd3_1
*I *2349:A I *D sky130_fd_sc_hd__buf_2
*I *2175:Q O *D sky130_fd_sc_hd__dfrtp_1
*CAP
1 *2306:A 0
2 *2349:A 0
3 *2175:Q 0.000203121
4 *248:14 0.000944252
5 *248:12 0.00110636
6 *248:6 0.000365225
7 *248:6 *315:10 2.30292e-05
8 *248:14 *272:19 0.00141194
9 *107:10 *248:12 0
*RES
1 *2175:Q *248:6 26.9564 
2 *248:6 *248:12 32.9621 
3 *248:12 *248:14 27.3014 
4 *248:14 *2349:A 23 
5 *248:6 *2306:A 23 
*END

*D_NET *249 0.000793386
*CONN
*I *2228:A I *D sky130_fd_sc_hd__dlygate4sd3_1
*I *2274:X O *D sky130_fd_sc_hd__dlygate4sd3_1
*CAP
1 *2228:A 0.000185203
2 *2274:X 9.78116e-05
3 *249:8 0.000283015
4 *249:8 *282:365 0.000138747
5 *84:8 *249:8 1.33792e-05
6 *176:10 *249:8 7.52305e-05
*RES
1 *2274:X *249:8 40.61 
2 *249:8 *2228:A 41.0036 
*END

*D_NET *250 0.000552144
*CONN
*I *2226:A I *D sky130_fd_sc_hd__dlygate4sd3_1
*I *2275:X O *D sky130_fd_sc_hd__dlygate4sd3_1
*CAP
1 *2226:A 0
2 *2275:X 0.000276072
3 *250:8 0.000276072
4 *250:8 *2189:RESET_B 0
5 *250:8 *271:28 0
6 *2302:A *250:8 0
*RES
1 *2275:X *250:8 42.7229 
2 *250:8 *2226:A 38 
*END

*D_NET *251 6.69045e-05
*CONN
*I *2223:A I *D sky130_fd_sc_hd__dlygate4sd3_1
*I *2276:X O *D sky130_fd_sc_hd__dlygate4sd3_1
*CAP
1 *2223:A 3.34522e-05
2 *2276:X 3.34522e-05
*RES
1 *2276:X *2223:A 46.6214 
*END

*D_NET *252 0.00408585
*CONN
*I *2350:A I *D sky130_fd_sc_hd__buf_2
*I *2297:A I *D sky130_fd_sc_hd__dlygate4sd3_1
*I *2176:Q O *D sky130_fd_sc_hd__dfrtp_1
*CAP
1 *2350:A 0
2 *2297:A 0
3 *2176:Q 9.37445e-05
4 *252:23 0.00180786
5 *252:12 0.000141324
6 *252:6 0.00204293
7 *252:12 *277:122 0
*RES
1 *2176:Q *252:6 24.5743 
2 *252:6 *252:12 32.61 
3 *252:12 *2297:A 23 
4 *252:6 *252:23 33.6607 
5 *252:23 *2350:A 23 
*END

*D_NET *253 0.00284192
*CONN
*I *2351:A I *D sky130_fd_sc_hd__buf_2
*I *2283:A I *D sky130_fd_sc_hd__dlygate4sd3_1
*I *2177:Q O *D sky130_fd_sc_hd__dfrtp_1
*CAP
1 *2351:A 0
2 *2283:A 0.000122084
3 *2177:Q 0.000168808
4 *253:25 0.00106247
5 *253:10 0.00135336
6 *253:10 *274:10 0
7 *253:25 *274:10 0
8 *253:25 *290:8 7.03766e-05
9 *2172:CLK *253:10 3.22051e-05
10 *36:8 *253:25 3.26241e-05
11 *111:10 *253:10 0
12 *111:10 *253:25 0
*RES
1 *2177:Q *253:10 40.8793 
2 *253:10 *2283:A 40.0507 
3 *253:10 *253:25 36.0871 
4 *253:25 *2351:A 23 
*END

*D_NET *254 0.00367386
*CONN
*I *2352:A I *D sky130_fd_sc_hd__buf_2
*I *2288:A I *D sky130_fd_sc_hd__dlygate4sd3_1
*I *2178:Q O *D sky130_fd_sc_hd__dfrtp_1
*CAP
1 *2352:A 0
2 *2288:A 0
3 *2178:Q 0.000352815
4 *254:23 0.00130403
5 *254:12 0.00130403
6 *254:10 0.000352815
7 *254:23 *295:10 0.000192736
8 *42:204 *254:10 0.000167443
9 *42:204 *254:23 0
10 *116:10 *254:23 0
*RES
1 *2178:Q *254:10 43.7379 
2 *254:10 *254:12 15 
3 *254:12 *2288:A 23 
4 *254:12 *254:23 40.3336 
5 *254:23 *2352:A 38 
*END

*D_NET *255 0.00469754
*CONN
*I *2058:A0 I *D sky130_fd_sc_hd__mux2_1
*I *2048:A2 I *D sky130_fd_sc_hd__a21boi_0
*I *2333:X O *D sky130_fd_sc_hd__buf_2
*CAP
1 *2058:A0 0
2 *2048:A2 0.000152592
3 *2333:X 0.000119526
4 *255:23 0.0014892
5 *255:12 0.00182571
6 *255:8 0.000303437
7 *255:8 *257:10 1.51481e-05
8 *255:8 *259:14 0
9 *255:8 *260:14 5.4927e-05
10 *255:12 *2354:A 5.5792e-05
11 *255:23 *2110:A1 0
12 *255:23 *2168:RESET_B 0
13 *255:23 *257:10 0
14 *255:23 *260:10 0.000122247
15 *255:23 *260:14 0.000467553
16 *255:23 *266:27 0
17 *255:23 *277:200 0
18 *255:23 *280:94 0
19 *255:23 *338:10 0
20 *20:8 *255:12 2.15233e-05
21 *178:14 *255:23 3.13952e-05
22 *187:10 *255:23 3.84822e-05
*RES
1 *2333:X *255:8 40.61 
2 *255:8 *255:12 18.0036 
3 *255:12 *2048:A2 25.5271 
4 *255:12 *255:23 48.5986 
5 *255:23 *2058:A0 38 
*END

*D_NET *256 0.00484399
*CONN
*I *2353:A I *D sky130_fd_sc_hd__buf_2
*I *2261:A I *D sky130_fd_sc_hd__dlygate4sd3_1
*I *2181:Q O *D sky130_fd_sc_hd__dfrtp_1
*CAP
1 *2353:A 0
2 *2261:A 0
3 *2181:Q 0.000277071
4 *256:23 0.00186624
5 *256:21 0.00197815
6 *256:10 0.000388981
7 *256:10 *2181:RESET_B 0.000223498
8 *256:21 *2181:RESET_B 0.000110046
*RES
1 *2181:Q *256:10 42.785 
2 *256:10 *2261:A 38 
3 *256:10 *256:21 17.9621 
4 *256:21 *256:23 34.4479 
5 *256:23 *2353:A 23 
*END

*D_NET *257 0.00442618
*CONN
*I *2259:A I *D sky130_fd_sc_hd__dlygate4sd3_1
*I *2354:A I *D sky130_fd_sc_hd__buf_2
*I *2182:Q O *D sky130_fd_sc_hd__dfrtp_1
*CAP
1 *2259:A 0.000477701
2 *2354:A 8.80361e-05
3 *2182:Q 0
4 *257:10 0.00126178
5 *257:4 0.00165145
6 *257:10 *2168:RESET_B 0
7 *257:10 *259:14 0.000629054
8 *257:10 *260:10 0
9 *257:10 *260:14 0
10 *233:8 *257:10 0.00014411
11 *240:10 *257:10 4.5882e-05
12 *245:10 *2259:A 5.72217e-05
13 *255:8 *257:10 1.51481e-05
14 *255:12 *2354:A 5.5792e-05
15 *255:23 *257:10 0
*RES
1 *2182:Q *257:4 23 
2 *257:4 *257:10 43.2336 
3 *257:10 *2354:A 39.5743 
4 *257:4 *2259:A 31.265 
*END

*D_NET *258 0.0035233
*CONN
*I *2355:A I *D sky130_fd_sc_hd__buf_2
*I *2202:Q O *D sky130_fd_sc_hd__dfrtp_1
*CAP
1 *2355:A 0
2 *2202:Q 0.000126229
3 *258:12 0.00163542
4 *258:8 0.00176165
*RES
1 *2202:Q *258:8 40.2579 
2 *258:8 *258:12 45.16 
3 *258:12 *2355:A 23 
*END

*D_NET *259 0.00379108
*CONN
*I *2271:A I *D sky130_fd_sc_hd__dlygate4sd3_1
*I *2356:A I *D sky130_fd_sc_hd__buf_2
*I *2167:Q O *D sky130_fd_sc_hd__dfrtp_1
*CAP
1 *2271:A 0
2 *2356:A 0
3 *2167:Q 0.000180893
4 *259:14 0.00130175
5 *259:10 0.00148264
6 *259:10 *2167:RESET_B 9.84851e-05
7 *259:10 *2168:RESET_B 0
8 *259:10 *277:200 0
9 *259:14 *2168:RESET_B 0
10 *259:14 *260:14 0
11 *232:8 *259:14 0
12 *233:8 *259:14 7.28526e-05
13 *245:10 *259:10 2.54046e-05
14 *255:8 *259:14 0
15 *257:10 *259:14 0.000629054
*RES
1 *2167:Q *259:10 41.3557 
2 *259:10 *259:14 46.1336 
3 *259:14 *2356:A 23 
4 *259:10 *2271:A 38 
*END

*D_NET *260 0.00329999
*CONN
*I *2266:A I *D sky130_fd_sc_hd__dlygate4sd3_1
*I *2357:A I *D sky130_fd_sc_hd__buf_2
*I *2168:Q O *D sky130_fd_sc_hd__dfrtp_1
*CAP
1 *2266:A 4.24511e-05
2 *2357:A 0
3 *2168:Q 0.000291387
4 *260:14 0.000889487
5 *260:10 0.00122333
6 *260:10 *2168:RESET_B 5.50049e-05
7 data_gain[1] *260:14 8.07507e-05
8 *240:10 *260:14 7.28526e-05
9 *255:8 *260:14 5.4927e-05
10 *255:23 *260:10 0.000122247
11 *255:23 *260:14 0.000467553
12 *257:10 *260:10 0
13 *257:10 *260:14 0
14 *259:14 *260:14 0
*RES
1 *2168:Q *260:10 43.6964 
2 *260:10 *260:14 37.6821 
3 *260:14 *2357:A 23 
4 *260:10 *2266:A 38.6214 
*END

*D_NET *261 0.00882338
*CONN
*I *2049:A1 I *D sky130_fd_sc_hd__a21o_1
*I *2358:A I *D sky130_fd_sc_hd__buf_2
*I *2045:Y O *D sky130_fd_sc_hd__inv_1
*CAP
1 *2049:A1 0
2 *2358:A 0.000154146
3 *2045:Y 0
4 *261:25 0.000271487
5 *261:19 0.00260777
6 *261:4 0.00249043
7 *2358:A *2045:A 6.65671e-06
8 *2358:A *2372:A 4.33987e-05
9 *2358:A *299:14 2.31082e-05
10 *261:19 *299:14 0.00290737
11 *261:19 *343:10 4.05196e-05
12 *261:25 *2111:A1 0
13 *261:25 *2199:SET_B 1.01436e-05
14 *261:25 *282:308 0
15 *261:25 *299:8 0
16 *261:25 *343:10 6.79006e-05
17 *2255:A *261:19 3.22879e-05
18 *45:8 *261:25 0
19 *81:49 *261:25 0.000113153
20 *228:10 *261:19 5.50106e-05
*RES
1 *2045:Y *261:4 23 
2 *261:4 *2358:A 25.6618 
3 *261:4 *261:19 45.8096 
4 *261:19 *261:25 35.4271 
5 *261:25 *2049:A1 23 
*END

*D_NET *262 0.00341024
*CONN
*I *2359:A I *D sky130_fd_sc_hd__buf_2
*I *2054:X O *D sky130_fd_sc_hd__and2_0
*CAP
1 *2359:A 0
2 *2054:X 9.11563e-05
3 *262:14 0.00159928
4 *262:8 0.00169043
5 *262:8 *2054:B 2.93747e-05
*RES
1 *2054:X *262:8 39.5743 
2 *262:8 *262:14 46.4029 
3 *262:14 *2359:A 23 
*END

*D_NET *263 0.00439736
*CONN
*I *2270:A I *D sky130_fd_sc_hd__dlygate4sd3_1
*I *2360:A I *D sky130_fd_sc_hd__buf_2
*I *2183:Q O *D sky130_fd_sc_hd__dfrtp_1
*CAP
1 *2270:A 0
2 *2360:A 0
3 *2183:Q 0.000192526
4 *263:21 9.7485e-05
5 *263:10 0.00187525
6 *263:6 0.00216526
7 *263:21 *319:8 6.68378e-05
*RES
1 *2183:Q *263:6 25.5271 
2 *263:6 *263:10 35.2971 
3 *263:10 *2360:A 23 
4 *263:6 *263:21 31.9057 
5 *263:21 *2270:A 23 
*END

*D_NET *264 0.00676102
*CONN
*I *2361:A I *D sky130_fd_sc_hd__buf_2
*I *2268:A I *D sky130_fd_sc_hd__dlygate4sd3_1
*I *2193:Q O *D sky130_fd_sc_hd__dfrtp_1
*CAP
1 *2361:A 0.00135354
2 *2268:A 0
3 *2193:Q 0.00136248
4 *264:26 0.00217535
5 *264:10 0.000540667
6 *264:10 *2193:RESET_B 0.000135735
7 *58:10 *264:26 0.000309734
8 *118:16 *264:26 4.95081e-05
9 *119:6 *264:26 0.000575996
10 *137:8 *264:10 0.000141869
11 *179:46 *264:10 4.57742e-05
12 *184:10 *264:10 7.03663e-05
*RES
1 *2193:Q *264:10 46.2443 
2 *264:10 *2268:A 38 
3 *2193:Q *264:26 40.4311 
4 *264:26 *2361:A 48.1575 
*END

*D_NET *265 0.00817024
*CONN
*I *2362:A I *D sky130_fd_sc_hd__buf_2
*I *2230:A I *D sky130_fd_sc_hd__dlygate4sd3_1
*I *2194:Q O *D sky130_fd_sc_hd__dfrtp_1
*CAP
1 *2362:A 0
2 *2230:A 0.000251962
3 *2194:Q 0.00031581
4 *265:34 0.00168039
5 *265:30 0.00168039
6 *265:28 0.000233759
7 *265:8 0.000334012
8 *265:8 *282:210 7.28526e-05
9 *265:28 *2194:RESET_B 0.000100486
10 *265:28 *282:204 5.0518e-05
11 *42:78 *265:8 0
12 *182:8 *265:34 0.00340354
13 *182:21 *265:34 4.65096e-05
*RES
1 *2194:Q *265:8 39.9057 
2 *265:8 *2230:A 42.4329 
3 *2194:Q *265:28 41.6043 
4 *265:28 *265:30 15 
5 *265:30 *265:34 39.7093 
6 *265:34 *2362:A 23 
*END

*D_NET *266 0.00366335
*CONN
*I *2059:A0 I *D sky130_fd_sc_hd__mux2_1
*I *2048:A1 I *D sky130_fd_sc_hd__a21boi_0
*I *2334:X O *D sky130_fd_sc_hd__buf_2
*CAP
1 *2059:A0 0
2 *2048:A1 4.52148e-05
3 *2334:X 0.000320964
4 *266:27 0.000626809
5 *266:14 0.000992988
6 *266:14 *288:10 0.000108761
7 *266:27 *338:10 2.79004e-05
8 data_gain[1] *266:14 0
9 *23:8 *266:14 5.50106e-05
10 *25:9 *266:14 2.19434e-05
11 *81:8 *266:14 6.66613e-05
12 *81:8 *266:27 0.00139709
13 *255:23 *266:27 0
*RES
1 *2334:X *266:14 44.1314 
2 *266:14 *2048:A1 38.6214 
3 *266:14 *266:27 33.4564 
4 *266:27 *2059:A0 23 
*END

*D_NET *267 0.00405249
*CONN
*I *2363:A I *D sky130_fd_sc_hd__buf_2
*I *2269:A I *D sky130_fd_sc_hd__dlygate4sd3_1
*I *2184:Q O *D sky130_fd_sc_hd__dfrtp_1
*CAP
1 *2363:A 0
2 *2269:A 4.23615e-05
3 *2184:Q 0.000397432
4 *267:27 0.00141852
5 *267:10 0.00185832
6 *267:10 *2184:RESET_B 0.000191255
7 *267:10 *282:8 2.8661e-05
8 trial_code[1] *267:27 1.35853e-05
9 *27:9 *267:27 8.76184e-05
10 *33:8 *267:27 1.47394e-05
*RES
1 *2184:Q *267:10 45.1257 
2 *267:10 *2269:A 38.6214 
3 *267:10 *267:27 42.0943 
4 *267:27 *2363:A 23 
*END

*D_NET *268 0.00371906
*CONN
*I *2264:A I *D sky130_fd_sc_hd__dlygate4sd3_1
*I *2364:A I *D sky130_fd_sc_hd__buf_2
*I *2185:Q O *D sky130_fd_sc_hd__dfrtp_1
*CAP
1 *2264:A 0.000162699
2 *2364:A 4.17755e-05
3 *2185:Q 0
4 *268:8 0.00115952
5 *268:4 0.00128045
6 *2264:A *340:10 0.000166297
7 *5:9 *268:8 5.54905e-05
8 *181:14 *268:8 0.000626743
9 *238:10 *2264:A 8.26478e-05
10 *238:10 *268:8 0.000143432
*RES
1 *2185:Q *268:4 23 
2 *268:4 *268:8 42.9643 
3 *268:8 *2364:A 38.6214 
4 *268:4 *2264:A 27.9093 
*END

*D_NET *269 0.00530051
*CONN
*I *2365:A I *D sky130_fd_sc_hd__buf_2
*I *2267:A I *D sky130_fd_sc_hd__dlygate4sd3_1
*I *2186:Q O *D sky130_fd_sc_hd__dfrtp_1
*CAP
1 *2365:A 0.000164812
2 *2267:A 0.00013968
3 *2186:Q 5.43738e-05
4 *269:23 0.00179322
5 *269:8 0.00182247
6 *2267:A *281:175 3.22879e-05
7 *269:23 *2073:B 0
8 *269:23 *281:186 0
9 *269:23 *281:197 0
10 *269:23 *287:8 0
11 *2118:B *2267:A 0.000129175
12 *2118:B *269:23 7.73177e-05
13 *2171:CLK *269:23 0.000447113
14 *2186:CLK *269:8 2.64616e-05
15 *180:19 *2267:A 0.000215252
16 *180:30 *2267:A 5.19959e-05
17 *180:30 *269:23 0.000346351
18 *215:23 *269:23 0
*RES
1 *2186:Q *269:8 38.6214 
2 *269:8 *2267:A 42.2879 
3 *269:8 *269:23 47.8943 
4 *269:23 *2365:A 26.0036 
*END

*D_NET *270 0.00549304
*CONN
*I *2272:A I *D sky130_fd_sc_hd__dlygate4sd3_1
*I *2366:A I *D sky130_fd_sc_hd__buf_2
*I *2187:Q O *D sky130_fd_sc_hd__dfrtp_1
*CAP
1 *2272:A 5.40424e-05
2 *2366:A 0.000169006
3 *2187:Q 0.000145391
4 *270:10 0.00214942
5 *270:8 0.00198041
6 *270:6 0.000199434
7 *270:10 *285:8 0
8 *4:10 *270:10 0
9 *96:10 *270:10 0
10 *112:8 *270:10 1.03972e-05
11 *161:54 *270:10 4.24694e-06
12 *181:80 *2272:A 8.49716e-05
13 *181:80 *270:6 5.50106e-05
14 *181:127 *270:10 0.0003953
15 *222:84 *270:10 0.000188512
16 *236:8 *270:10 0
17 *246:10 *270:6 5.68958e-05
*RES
1 *2187:Q *270:6 26.0036 
2 *270:6 *270:8 15 
3 *270:8 *270:10 39.2329 
4 *270:10 *2366:A 41.0036 
5 *270:6 *2272:A 24.0979 
*END

*D_NET *271 0.00726356
*CONN
*I *2275:A I *D sky130_fd_sc_hd__dlygate4sd3_1
*I *2367:A I *D sky130_fd_sc_hd__buf_2
*I *2188:Q O *D sky130_fd_sc_hd__dfrtp_1
*CAP
1 *2275:A 0
2 *2367:A 0
3 *2188:Q 0.000119464
4 *271:28 0.000119464
5 *271:12 8.88731e-05
6 *271:6 0.00245717
7 *271:4 0.00236829
8 *271:6 *2188:RESET_B 0.000393971
9 data[5] *271:12 6.29881e-05
10 *2174:CLK *271:28 3.22051e-05
11 *2302:A *271:28 0.000139865
12 *237:14 *271:6 2.93845e-05
13 *237:21 *271:6 0.00145189
14 *250:8 *271:28 0
*RES
1 *2188:Q *271:4 23 
2 *271:4 *271:6 37.7829 
3 *271:6 *271:12 31.9057 
4 *271:12 *2367:A 23 
5 *2188:Q *271:28 40.5271 
6 *271:28 *2275:A 38 
*END

*D_NET *272 0.00722414
*CONN
*I *2368:A I *D sky130_fd_sc_hd__buf_2
*I *2273:A I *D sky130_fd_sc_hd__dlygate4sd3_1
*I *2189:Q O *D sky130_fd_sc_hd__dfrtp_1
*CAP
1 *2368:A 0
2 *2273:A 0
3 *2189:Q 0.00012698
4 *272:25 0.000190773
5 *272:19 0.00247258
6 *272:12 5.82135e-05
7 *272:6 0.002467
8 *272:12 *281:127 0.000141879
9 *272:12 *316:10 8.62876e-05
10 data[6] *272:25 6.54744e-05
11 *54:8 *272:19 0.000145065
12 *106:30 *272:6 5.79559e-05
13 *107:10 *272:12 0
14 *248:14 *272:19 0.00141194
*RES
1 *2189:Q *272:6 24.5743 
2 *272:6 *272:12 31.9057 
3 *272:12 *2273:A 23 
4 *272:6 *272:19 36.3536 
5 *272:19 *272:25 34.0186 
6 *272:25 *2368:A 23 
*END

*D_NET *273 0.00629449
*CONN
*I *2369:A I *D sky130_fd_sc_hd__buf_2
*I *2276:A I *D sky130_fd_sc_hd__dlygate4sd3_1
*I *2190:Q O *D sky130_fd_sc_hd__dfrtp_1
*CAP
1 *2369:A 0
2 *2276:A 0
3 *2190:Q 0.000334753
4 *273:25 0.00225521
5 *273:14 0.000216738
6 *273:6 0.0028067
7 *273:6 *306:10 8.19692e-05
8 *273:14 *281:25 0.000233359
9 *273:14 *281:29 8.96322e-05
10 *2090:A *273:6 6.36877e-05
11 *2090:B *273:6 0.00010018
12 *2298:A *273:25 0.000100061
13 *109:10 *273:6 1.21972e-05
14 *178:110 *273:14 0
*RES
1 *2190:Q *273:6 29.815 
2 *273:6 *273:14 35.1371 
3 *273:14 *2276:A 23 
4 *273:6 *273:25 41.76 
5 *273:25 *2369:A 23 
*END

*D_NET *274 0.00384721
*CONN
*I *2263:A I *D sky130_fd_sc_hd__dlygate4sd3_1
*I *2370:A I *D sky130_fd_sc_hd__buf_2
*I *2191:Q O *D sky130_fd_sc_hd__dfrtp_1
*CAP
1 *2263:A 0.000228948
2 *2370:A 0
3 *2191:Q 0
4 *274:10 0.00160991
5 *274:4 0.00183885
6 *274:10 *275:23 0
7 *274:10 *282:107 8.26385e-05
8 *274:10 *282:109 3.84822e-05
9 *274:10 *290:8 0
10 *274:10 *291:10 0
11 *2093:B *274:10 0
12 *2096:A1 *274:10 0
13 *111:10 *274:10 4.83778e-05
14 *253:10 *274:10 0
15 *253:25 *274:10 0
*RES
1 *2191:Q *274:4 23 
2 *274:4 *274:10 46.9207 
3 *274:10 *2370:A 38 
4 *274:4 *2263:A 26.9564 
*END

*D_NET *275 0.00509474
*CONN
*I *2371:A I *D sky130_fd_sc_hd__buf_2
*I *2265:A I *D sky130_fd_sc_hd__dlygate4sd3_1
*I *2192:Q O *D sky130_fd_sc_hd__dfrtp_1
*CAP
1 *2371:A 0.000287849
2 *2265:A 2.50024e-05
3 *2192:Q 0.000168321
4 *275:23 0.00177037
5 *275:10 0.00167584
6 *2265:A *276:62 0.000100486
7 *275:23 *2178:RESET_B 0.00011794
8 *275:23 *282:107 0
9 *275:23 *292:10 5.56203e-05
10 *275:23 *330:10 5.511e-05
11 *2093:B *275:23 7.38527e-05
12 *2096:A1 *275:23 8.83237e-05
13 *2098:A2 *275:10 0.000158816
14 *2131:B *275:10 1.84917e-05
15 *2191:CLK *275:23 0.000196481
16 *113:20 *275:10 0
17 *113:20 *275:23 0
18 *117:21 *275:23 0
19 *179:109 *275:23 0.000247678
20 *181:137 *2265:A 5.45644e-05
21 *274:10 *275:23 0
*RES
1 *2192:Q *275:10 40.8793 
2 *275:10 *2265:A 39.0979 
3 *275:10 *275:23 45.7814 
4 *275:23 *2371:A 28.3857 
*END

*D_NET *276 0.0126315
*CONN
*I *2121:B1 I *D sky130_fd_sc_hd__a22o_1
*I *2132:B1 I *D sky130_fd_sc_hd__a22o_1
*I *2134:B1 I *D sky130_fd_sc_hd__a22o_1
*I *2123:B1 I *D sky130_fd_sc_hd__a22o_1
*I *2119:B1 I *D sky130_fd_sc_hd__a22o_1
*I *2337:X O *D sky130_fd_sc_hd__clkbuf_2
*CAP
1 *2121:B1 7.51055e-05
2 *2132:B1 4.16059e-05
3 *2134:B1 0
4 *2123:B1 0.00031979
5 *2119:B1 0
6 *2337:X 0.000248113
7 *276:62 0.000846931
8 *276:46 0.00101535
9 *276:33 0.001382
10 *276:25 0.00198332
11 *276:12 0.000972814
12 *276:10 0.000248113
13 *2121:B1 *2121:A1 5.12254e-05
14 *276:10 *2186:RESET_B 0.000119873
15 *276:10 *279:124 0.000443274
16 *276:25 *281:175 0
17 *276:25 *337:10 0.000113398
18 *276:62 *2134:A1 0.000222991
19 *276:62 *282:111 4.20446e-05
20 *276:62 *330:10 0.000100477
21 *2098:A2 *276:62 0.000232049
22 *2117:B2 *276:10 0.000100486
23 *2118:A *276:25 2.92911e-06
24 *2119:B2 *276:25 0.000102216
25 *2121:B2 *2121:B1 1.75562e-05
26 *2123:A1 *2123:B1 5.50049e-05
27 *2134:A2 *276:62 0.000323904
28 *2134:B2 *276:62 4.80663e-05
29 *2265:A *276:62 0.000100486
30 *2320:A *276:62 7.17698e-05
31 *2322:A *276:62 0.000311106
32 *95:6 *276:25 3.82058e-06
33 *95:23 *276:10 0.000119659
34 *99:27 *276:25 0.000174442
35 *99:27 *276:33 8.21456e-06
36 *100:49 *2123:B1 0
37 *115:10 *276:62 5.45644e-05
38 *124:61 *2123:B1 1.93489e-05
39 *124:76 *2123:B1 0.000590722
40 *124:76 *276:46 5.2952e-05
41 *124:86 *276:25 2.26406e-05
42 *124:86 *276:33 0.00121284
43 *124:93 *276:46 0.000151411
44 *124:93 *276:62 2.76401e-05
45 *124:110 *276:62 0.000198022
46 *130:10 *2123:B1 0.000161121
47 *161:46 *2121:B1 7.73389e-05
48 *180:30 *276:10 4.51746e-05
49 *181:100 *2123:B1 5.67058e-05
50 *181:137 *276:62 6.28336e-05
51 *188:8 *2123:B1 0
*RES
1 *2337:X *276:10 45.8714 
2 *276:10 *276:12 15 
3 *276:12 *2119:B1 23 
4 *276:12 *276:25 30.5771 
5 *276:25 *276:33 18.7813 
6 *276:33 *2123:B1 47.0418 
7 *276:33 *276:46 2.78607 
8 *276:46 *276:62 35.7143 
9 *276:62 *2134:B1 23 
10 *276:46 *2132:B1 38.6214 
11 *276:25 *2121:B1 40.0714 
*END

*D_NET *277 0.0187032
*CONN
*I *2182:RESET_B I *D sky130_fd_sc_hd__dfrtp_1
*I *2168:RESET_B I *D sky130_fd_sc_hd__dfrtp_1
*I *2190:RESET_B I *D sky130_fd_sc_hd__dfrtp_1
*I *2167:RESET_B I *D sky130_fd_sc_hd__dfrtp_1
*I *2176:RESET_B I *D sky130_fd_sc_hd__dfrtp_1
*I *2202:RESET_B I *D sky130_fd_sc_hd__dfrtp_1
*I *2181:RESET_B I *D sky130_fd_sc_hd__dfrtp_1
*I *2175:RESET_B I *D sky130_fd_sc_hd__dfrtp_1
*I *2183:RESET_B I *D sky130_fd_sc_hd__dfrtp_1
*I *2169:RESET_B I *D sky130_fd_sc_hd__dfrtp_1
*I *2189:RESET_B I *D sky130_fd_sc_hd__dfrtp_1
*I *2188:RESET_B I *D sky130_fd_sc_hd__dfrtp_1
*I *2342:A I *D sky130_fd_sc_hd__buf_12
*I *2174:RESET_B I *D sky130_fd_sc_hd__dfrtp_1
*I *2170:RESET_B I *D sky130_fd_sc_hd__dfrtp_1
*I *2335:X O *D sky130_fd_sc_hd__buf_2
*CAP
1 *2182:RESET_B 0
2 *2168:RESET_B 0.000335324
3 *2190:RESET_B 0.000715695
4 *2167:RESET_B 0.000838278
5 *2176:RESET_B 0.000756496
6 *2202:RESET_B 0
7 *2181:RESET_B 0.00122194
8 *2175:RESET_B 6.76833e-05
9 *2183:RESET_B 6.39885e-05
10 *2169:RESET_B 0.00062906
11 *2189:RESET_B 0.000798102
12 *2188:RESET_B 0.000748291
13 *2342:A 0.000109411
14 *2174:RESET_B 0.000825864
15 *2170:RESET_B 0.000157072
16 *2335:X 0
17 *277:200 0.000435211
18 *277:122 0.000984714
19 *277:120 0.000991221
20 *277:88 0.000714246
21 *277:84 0.000798277
22 *277:18 0.00108021
23 *277:12 0.00201458
24 *277:6 0.00159757
25 *2168:RESET_B *294:10 4.99842e-05
26 *2169:RESET_B *320:8 0
27 *2174:RESET_B *281:153 0
28 *2174:RESET_B *298:8 3.84486e-05
29 *2174:RESET_B *311:10 0
30 *2175:RESET_B *2175:D 4.59048e-05
31 *2181:RESET_B *281:37 0
32 *2190:RESET_B *2092:A1 0.00018637
33 *2190:RESET_B *2176:D 8.74649e-05
34 *277:84 *281:114 0.00025047
35 *277:88 *2087:B 6.07306e-05
36 *277:88 *281:114 0.000100176
37 *277:120 *318:8 0
38 *277:122 *281:29 0
39 *277:122 *281:31 0
40 *2090:A *2190:RESET_B 0.000178813
41 *2090:B *2190:RESET_B 0.000178813
42 *2109:A1 *2167:RESET_B 0.000149886
43 *2174:CLK *2188:RESET_B 0.00010252
44 *2174:CLK *2189:RESET_B 5.02764e-05
45 *2176:CLK *2190:RESET_B 3.59965e-05
46 *2181:CLK *2167:RESET_B 3.46302e-05
47 *2291:A *2170:RESET_B 7.9566e-05
48 *2291:A *2174:RESET_B 2.64616e-05
49 *2293:A *2174:RESET_B 0
50 *86:10 *277:120 0
51 *106:30 *2189:RESET_B 9.3307e-05
52 *106:30 *277:84 0.000145685
53 *133:10 *2190:RESET_B 0
54 *178:110 *2190:RESET_B 1.40958e-05
55 *180:63 *2189:RESET_B 0
56 *180:65 *2189:RESET_B 0
57 *197:10 *2189:RESET_B 4.21594e-06
58 *234:10 *2181:RESET_B 2.51913e-05
59 *237:14 *2174:RESET_B 0
60 *245:10 *277:200 0
61 *250:8 *2189:RESET_B 0
62 *252:12 *277:122 0
63 *255:23 *2168:RESET_B 0
64 *255:23 *277:200 0
65 *256:10 *2181:RESET_B 0.000223498
66 *256:21 *2181:RESET_B 0.000110046
67 *257:10 *2168:RESET_B 0
68 *259:10 *2167:RESET_B 9.84851e-05
69 *259:10 *2168:RESET_B 0
70 *259:10 *277:200 0
71 *259:14 *2168:RESET_B 0
72 *260:10 *2168:RESET_B 5.50049e-05
73 *271:6 *2188:RESET_B 0.000393971
*RES
1 *2335:X *277:6 38 
2 *277:6 *277:12 45.6157 
3 *277:12 *277:18 36.1314 
4 *277:18 *2170:RESET_B 2.93107 
5 *277:18 *2174:RESET_B 42.035 
6 *277:12 *2342:A 25.0507 
7 *2174:RESET_B *2188:RESET_B 5.71714 
8 *2188:RESET_B *2189:RESET_B 39.5907 
9 *2189:RESET_B *277:84 21.4111 
10 *277:84 *277:88 8.51357 
11 *277:88 *2169:RESET_B 18.6664 
12 *277:88 *2183:RESET_B 16.0254 
13 *277:84 *2175:RESET_B 16.0254 
14 *2169:RESET_B *277:120 23.1614 
15 *277:120 *277:122 9.65286 
16 *277:122 *2181:RESET_B 25.4711 
17 *277:122 *2202:RESET_B 15 
18 *277:120 *2176:RESET_B 15.5489 
19 *2181:RESET_B *2167:RESET_B 44.0236 
20 *2176:RESET_B *2190:RESET_B 41.8693 
21 *2167:RESET_B *277:200 16.9057 
22 *277:200 *2168:RESET_B 21.4732 
23 *277:200 *2182:RESET_B 15 
*END

*D_NET *278 0.00552568
*CONN
*I *2115:B1 I *D sky130_fd_sc_hd__a22o_1
*I *2117:B1 I *D sky130_fd_sc_hd__a22o_1
*I *2337:A I *D sky130_fd_sc_hd__clkbuf_2
*I *2125:B1 I *D sky130_fd_sc_hd__a22o_1
*I *2127:B1 I *D sky130_fd_sc_hd__a22o_1
*I *2338:X O *D sky130_fd_sc_hd__clkbuf_2
*CAP
1 *2115:B1 9.99916e-05
2 *2117:B1 0
3 *2337:A 0.000116932
4 *2125:B1 0
5 *2127:B1 2.79004e-05
6 *2338:X 0.000334101
7 *278:32 0.000578158
8 *278:21 0.000812484
9 *278:10 0.000802844
10 *278:6 0.000857778
11 *2115:B1 *2115:A2 5.58003e-05
12 *2337:A *279:124 1.90678e-05
13 *278:10 *279:90 0.000255168
14 *278:10 *279:94 2.76611e-06
15 *278:21 *279:94 9.33109e-05
16 *278:32 *2065:B1 0.000137744
17 *278:32 *279:94 1.02387e-05
18 *278:32 *279:109 3.84778e-05
19 *2070:C *278:32 0
20 *2086:B1 *2127:B1 5.50106e-05
21 *2117:B2 *2337:A 5.45541e-05
22 *87:8 *278:10 0.000170807
23 *89:12 *278:10 0
24 *89:12 *278:21 0
25 *89:12 *278:32 0
26 *89:25 *278:32 0.000282986
27 *104:12 *278:21 4.34173e-05
28 *104:12 *278:32 1.94522e-05
29 *106:10 *278:10 2.84809e-05
30 *126:10 *278:10 0.000111106
31 *132:10 *278:10 0.000169674
32 *180:65 *278:10 0
33 *181:18 *278:32 8.95485e-05
34 *181:24 *278:32 0
35 *190:10 *278:21 5.21127e-05
36 *196:21 *278:21 0.000194327
37 *196:21 *278:32 1.14452e-05
*RES
1 *2338:X *278:6 28.3857 
2 *278:6 *278:10 26.0614 
3 *278:10 *2127:B1 38.6214 
4 *278:10 *278:21 7.89214 
5 *278:21 *2125:B1 38 
6 *278:21 *278:32 26.4136 
7 *278:32 *2337:A 25.0507 
8 *278:32 *2117:B1 23 
9 *278:6 *2115:B1 24.5743 
*END

*D_NET *279 0.015816
*CONN
*I *2127:A2 I *D sky130_fd_sc_hd__a22o_1
*I *2119:A2 I *D sky130_fd_sc_hd__a22o_1
*I *2117:A2 I *D sky130_fd_sc_hd__a22o_1
*I *2125:A2 I *D sky130_fd_sc_hd__a22o_1
*I *2115:A2 I *D sky130_fd_sc_hd__a22o_1
*I *2128:B I *D sky130_fd_sc_hd__nand2_1
*I *2130:A2 I *D sky130_fd_sc_hd__o31ai_1
*I *2113:B I *D sky130_fd_sc_hd__nor3b_1
*I *2339:X O *D sky130_fd_sc_hd__buf_4
*CAP
1 *2127:A2 0
2 *2119:A2 0
3 *2117:A2 0
4 *2125:A2 4.02066e-05
5 *2115:A2 7.85017e-05
6 *2128:B 0.000406324
7 *2130:A2 0
8 *2113:B 8.31652e-05
9 *2339:X 0.000225583
10 *279:124 0.000690025
11 *279:109 0.00114092
12 *279:94 0.000790453
13 *279:90 0.000796871
14 *279:73 0.00157662
15 *279:50 0.00148144
16 *279:41 0.000330743
17 *279:14 0.00154821
18 *279:10 0.0014344
19 *2113:B *280:6 7.20477e-05
20 *2128:B *280:14 6.43108e-05
21 *279:41 *280:6 7.71797e-05
22 *279:41 *344:21 2.33476e-05
23 *279:50 *280:6 1.6318e-05
24 *279:73 *280:14 2.60152e-05
25 *279:73 *281:10 0
26 *279:73 *281:92 0
27 *279:90 *342:19 8.90678e-05
28 *279:109 *2065:B1 7.98226e-05
29 *279:109 *340:10 5.75756e-06
30 *2043:A *279:10 6.9312e-05
31 *2051:B *2113:B 2.33476e-05
32 *2086:B1 *279:90 6.17437e-06
33 *2115:B1 *2115:A2 5.58003e-05
34 *2117:B2 *279:124 9.69655e-05
35 *2128:A *2128:B 5.43894e-06
36 *2129:A1 *2128:B 5.29672e-05
37 *2129:A3 *2128:B 3.22879e-05
38 *2130:A1 *2113:B 5.03677e-05
39 *2130:A1 *279:41 9.58714e-05
40 *2138:C1 *279:10 2.64616e-05
41 *2141:A *279:10 4.5051e-05
42 *2141:C *279:10 0.00019109
43 *2175:CLK *279:90 0
44 *2190:CLK *2128:B 7.27839e-05
45 *2225:A *279:73 9.41704e-05
46 *2337:A *279:124 1.90678e-05
47 *42:10 *279:73 3.53348e-05
48 *42:27 *279:14 0.000368313
49 *42:27 *279:41 6.35063e-05
50 *42:31 *279:10 2.24608e-05
51 *63:8 *279:124 5.55743e-06
52 *68:8 *279:90 4.83778e-05
53 *69:10 *2128:B 0
54 *69:10 *279:73 0
55 *85:19 *2113:B 5.37348e-06
56 *85:34 *2113:B 1.57571e-05
57 *85:34 *279:41 3.04308e-05
58 *85:34 *279:50 5.07181e-05
59 *87:8 *279:90 0.000168515
60 *89:25 *2125:A2 5.37348e-06
61 *89:25 *279:109 0.000567678
62 *106:30 *279:90 1.5769e-05
63 *108:10 *279:73 0
64 *126:10 *279:73 1.13812e-05
65 *126:10 *279:90 0.000126363
66 *133:10 *279:73 6.63801e-05
67 *134:10 *2128:B 0.000138727
68 *159:38 *2113:B 2.11066e-05
69 *161:14 *2128:B 0.000182832
70 *161:14 *279:41 2.11157e-05
71 *180:61 *279:109 7.13673e-05
72 *180:63 *279:94 0.000128985
73 *180:63 *279:109 2.76611e-06
74 *180:65 *279:94 6.95665e-05
75 *180:110 *279:109 0.00019706
76 *190:10 *279:94 0.000108681
77 *195:8 *279:73 0
78 *196:21 *279:94 9.64022e-05
79 *207:67 *279:10 0.00017477
80 *219:16 *279:10 0.000137651
81 *222:136 *2128:B 0
82 *230:8 *279:73 0
83 *276:10 *279:124 0.000443274
84 *278:10 *279:90 0.000255168
85 *278:10 *279:94 2.76611e-06
86 *278:21 *279:94 9.33109e-05
87 *278:32 *279:94 1.02387e-05
88 *278:32 *279:109 3.84778e-05
*RES
1 *2339:X *279:10 44.4732 
2 *279:10 *279:14 10.632 
3 *279:14 *2113:B 48.0248 
4 *279:14 *279:41 25.533 
5 *279:41 *2130:A2 23 
6 *279:41 *279:50 16.3361 
7 *279:50 *2128:B 46.9486 
8 *279:50 *279:73 48.415 
9 *279:73 *2115:A2 39.5743 
10 *279:73 *279:90 27.18 
11 *279:90 *279:94 23.2443 
12 *279:94 *2125:A2 38.6214 
13 *279:94 *279:109 27.035 
14 *279:109 *2117:A2 23 
15 *279:109 *279:124 41.2271 
16 *279:124 *2119:A2 23 
17 *279:90 *2127:A2 23 
*END

*D_NET *280 0.0146515
*CONN
*I *2058:S I *D sky130_fd_sc_hd__mux2_1
*I *2059:S I *D sky130_fd_sc_hd__mux2_1
*I *2158:B I *D sky130_fd_sc_hd__nand3_1
*I *2161:A1 I *D sky130_fd_sc_hd__a21oi_1
*I *2154:A1 I *D sky130_fd_sc_hd__a21bo_1
*I *2153:B I *D sky130_fd_sc_hd__nand3_1
*I *2340:X O *D sky130_fd_sc_hd__clkbuf_2
*CAP
1 *2058:S 3.89743e-05
2 *2059:S 0
3 *2158:B 0.000152384
4 *2161:A1 0
5 *2154:A1 0.000250239
6 *2153:B 7.37259e-05
7 *2340:X 0.00092138
8 *280:94 0.000569621
9 *280:88 0.000696823
10 *280:72 0.000227793
11 *280:55 0.000754483
12 *280:51 0.000601649
13 *280:38 0.000593385
14 *280:28 0.00151043
15 *280:16 0.00090618
16 *280:14 0.000911427
17 *280:6 0.00183281
18 *280:14 *2055:A 0
19 *280:14 *344:21 0
20 *280:28 *2164:RESET_B 4.05389e-05
21 *280:28 *282:365 0.000103802
22 *280:94 *2110:A1 0.000199701
23 *280:94 *294:10 7.03766e-05
24 *2056:A *280:28 0.000182695
25 *2113:B *280:6 7.20477e-05
26 *2128:B *280:14 6.43108e-05
27 *2130:A1 *280:6 2.37061e-05
28 *2153:A *2153:B 2.46468e-05
29 *2154:A2 *2154:A1 0.000179725
30 *2158:C *280:72 5.3304e-05
31 *2163:B2 *280:72 5.50049e-05
32 *2190:CLK *280:14 0
33 *2235:A *280:38 9.66668e-05
34 *2250:A *280:6 1.94812e-05
35 *2274:A *280:28 5.56356e-05
36 *42:10 *280:14 0.00021673
37 *44:8 *2158:B 0
38 *78:10 *280:38 0.000113973
39 *81:8 *280:14 0.000677963
40 *81:8 *280:94 0.000297012
41 *85:19 *280:6 0.000136259
42 *134:10 *280:14 0.000140958
43 *148:10 *280:72 6.16439e-05
44 *148:14 *280:72 3.46954e-05
45 *148:20 *2153:B 1.90939e-05
46 *150:14 *2154:A1 2.69767e-05
47 *150:14 *280:38 0.000111763
48 *150:14 *280:55 2.97099e-05
49 *151:10 *280:72 0.000111764
50 *153:8 *2158:B 0.000110843
51 *153:8 *280:51 3.673e-05
52 *161:14 *280:14 6.7177e-06
53 *177:37 *280:38 8.58827e-05
54 *178:10 *280:14 0
55 *178:14 *280:14 0
56 *178:14 *280:94 8.0612e-06
57 *178:20 *2058:S 8.80481e-05
58 *178:20 *280:28 5.58003e-05
59 *178:20 *280:88 0.000172432
60 *187:10 *280:94 6.90927e-05
61 *198:8 *280:55 0.000187363
62 *198:10 *2158:B 0
63 *198:10 *280:72 0
64 *198:43 *2158:B 0
65 *198:43 *280:72 0
66 *198:61 *280:72 3.20914e-05
67 *203:23 *2158:B 0
68 *205:10 *280:55 7.95762e-05
69 *206:10 *280:38 0.00014196
70 *222:6 *280:6 0.000143259
71 *222:16 *280:6 1.3523e-05
72 *224:10 *280:55 1.66123e-05
73 *230:8 *280:14 2.24973e-05
74 *255:23 *280:94 0
75 *279:41 *280:6 7.71797e-05
76 *279:50 *280:6 1.6318e-05
77 *279:73 *280:14 2.60152e-05
*RES
1 *2340:X *280:6 35.0557 
2 *280:6 *280:14 36.6879 
3 *280:14 *280:16 15 
4 *280:16 *280:28 32.1514 
5 *280:28 *280:38 40.2536 
6 *280:38 *2153:B 39.1186 
7 *280:28 *280:51 3.66643 
8 *280:51 *280:55 20.8621 
9 *280:55 *2154:A1 26.9771 
10 *280:55 *280:72 34.4121 
11 *280:72 *2161:A1 23 
12 *280:51 *2158:B 40.61 
13 *280:16 *280:88 2.05071 
14 *280:88 *280:94 43.8786 
15 *280:94 *2059:S 23 
16 *280:88 *2058:S 24.0979 
*END

*D_NET *281 0.029331
*CONN
*I *2066:B I *D sky130_fd_sc_hd__nor2_1
*I *2067:A1 I *D sky130_fd_sc_hd__a21oi_1
*I *2073:B I *D sky130_fd_sc_hd__nor2_1
*I *2068:B I *D sky130_fd_sc_hd__nor2_1
*I *2072:A1 I *D sky130_fd_sc_hd__a21oi_1
*I *2077:A1 I *D sky130_fd_sc_hd__a21oi_1
*I *2084:B I *D sky130_fd_sc_hd__nor2_1
*I *2085:A1 I *D sky130_fd_sc_hd__a21oi_1
*I *2088:A1 I *D sky130_fd_sc_hd__a21oi_1
*I *2087:B I *D sky130_fd_sc_hd__nor2_1
*I *2062:A1 I *D sky130_fd_sc_hd__a21oi_1
*I *2060:B I *D sky130_fd_sc_hd__nor2_1
*I *2091:B I *D sky130_fd_sc_hd__nor2_1
*I *2202:D I *D sky130_fd_sc_hd__dfrtp_1
*I *2109:S I *D sky130_fd_sc_hd__mux2_1
*I *2110:S I *D sky130_fd_sc_hd__mux2_1
*I *2092:A1 I *D sky130_fd_sc_hd__a21oi_1
*I *2341:X O *D sky130_fd_sc_hd__buf_6
*CAP
1 *2066:B 0
2 *2067:A1 2.26823e-05
3 *2073:B 0.000461746
4 *2068:B 0.00028701
5 *2072:A1 0.000189861
6 *2077:A1 0.000330526
7 *2084:B 0.000175065
8 *2085:A1 0.000548527
9 *2088:A1 0
10 *2087:B 6.07159e-05
11 *2062:A1 0
12 *2060:B 0.000138516
13 *2091:B 6.68136e-05
14 *2202:D 0.000144429
15 *2109:S 0
16 *2110:S 0.000794818
17 *2092:A1 0.000320951
18 *2341:X 0.000468924
19 *281:197 0.00107315
20 *281:186 0.000719062
21 *281:175 0.00202676
22 *281:159 0.00177038
23 *281:153 0.000677292
24 *281:129 0.000723592
25 *281:127 0.000774981
26 *281:114 0.000589477
27 *281:101 0.000617851
28 *281:92 0.0010543
29 *281:47 0.00133141
30 *281:37 0.00118116
31 *281:31 0.00111871
32 *281:29 0.000876294
33 *281:25 0.000950044
34 *281:10 0.000761949
35 *281:8 0.00131085
36 *2073:B *2073:A 9.84794e-05
37 *2077:A1 *2077:B1 0.000102971
38 *2085:A1 *309:6 0.000497763
39 *2087:B *2062:B1 5.58003e-05
40 *2087:B *315:10 1.37712e-05
41 *2110:S *293:6 0.000570592
42 *281:29 *306:10 0
43 *281:29 *307:8 0.000141879
44 *281:37 *2109:A0 9.92933e-05
45 *281:47 *2109:A0 0.000102389
46 *281:92 *342:19 5.54823e-05
47 *281:101 *2062:B1 0.000363506
48 *281:114 *315:10 2.37093e-05
49 *281:114 *316:10 6.07611e-06
50 *281:114 *317:8 0
51 *281:127 *316:10 1.37246e-05
52 *281:153 *311:10 0.000360161
53 *281:159 *2067:B1 0.000279493
54 *281:175 *2065:B1 9.09644e-05
55 *281:175 *2076:B1 5.63547e-05
56 *281:175 *2121:A1 1.59094e-05
57 *281:175 *336:10 4.83642e-05
58 *281:186 *284:8 0
59 *281:197 *284:8 0
60 *2062:A2 *281:92 0.000228473
61 *2065:A1 *281:175 0.000127821
62 *2067:A2 *281:175 0.000144067
63 *2109:A1 *281:47 0.000144501
64 *2174:RESET_B *281:153 0
65 *2181:RESET_B *281:37 0
66 *2183:CLK *281:92 0.000187335
67 *2190:RESET_B *2092:A1 0.00018637
68 *2202:CLK *2202:D 5.40337e-05
69 *2202:CLK *281:29 0
70 *2202:CLK *281:31 0
71 *2260:A *2110:S 0
72 *2267:A *281:175 3.22879e-05
73 *2286:A *2110:S 9.84794e-05
74 *2292:A *281:159 5.56279e-05
75 *2293:A *281:153 2.67733e-05
76 *2301:A *2084:B 0.000143655
77 *2302:A *281:127 0.000118174
78 *2302:A *281:153 0.000555284
79 *49:8 *281:159 0.000463619
80 *53:8 *2085:A1 3.06911e-05
81 *55:8 *281:29 0
82 *60:8 *281:37 0
83 *62:10 *281:92 3.84905e-05
84 *95:23 *2072:A1 5.3304e-05
85 *96:10 *2073:B 5.67058e-05
86 *99:27 *2077:A1 5.5792e-05
87 *107:10 *281:114 0
88 *110:10 *2091:B 4.84129e-06
89 *110:10 *281:29 0
90 *133:10 *2092:A1 0
91 *161:46 *281:175 9.58714e-05
92 *178:104 *281:29 0
93 *178:110 *2092:A1 0.000452793
94 *178:110 *281:10 0.000223043
95 *178:110 *281:92 1.01436e-05
96 *181:24 *281:175 0.000228909
97 *196:6 *2085:A1 2.92566e-05
98 *215:10 *281:197 0
99 *215:23 *2073:B 0
100 *232:8 *281:47 0
101 *235:8 *281:37 0
102 *241:10 *281:175 4.39278e-05
103 *245:10 *281:47 0
104 *269:23 *2073:B 0
105 *269:23 *281:186 0
106 *269:23 *281:197 0
107 *272:12 *281:127 0.000141879
108 *273:14 *281:25 0.000233359
109 *273:14 *281:29 8.96322e-05
110 *276:25 *281:175 0
111 *277:84 *281:114 0.00025047
112 *277:88 *2087:B 6.07306e-05
113 *277:88 *281:114 0.000100176
114 *277:122 *281:29 0
115 *277:122 *281:31 0
116 *279:73 *281:10 0
117 *279:73 *281:92 0
*RES
1 *2341:X *281:8 45.7679 
2 *281:8 *281:10 2.96214 
3 *281:10 *2092:A1 45.0014 
4 *281:10 *281:25 21.3386 
5 *281:25 *281:29 23.9486 
6 *281:29 *281:31 6.13143 
7 *281:31 *281:37 27.76 
8 *281:37 *281:47 40.44 
9 *281:47 *2110:S 37.8107 
10 *281:37 *2109:S 23 
11 *281:31 *2202:D 40.5271 
12 *281:29 *2091:B 39.0979 
13 *281:25 *2060:B 25.5271 
14 *281:8 *281:92 29.21 
15 *281:92 *2062:A1 23 
16 *281:92 *281:101 19.9093 
17 *281:101 *2087:B 39.4707 
18 *281:101 *281:114 5.42714 
19 *281:114 *2088:A1 38 
20 *281:114 *281:127 6.89786 
21 *281:127 *281:129 15 
22 *281:129 *2085:A1 31.2443 
23 *281:129 *2084:B 26.8529 
24 *281:127 *281:153 26.4757 
25 *281:153 *281:159 8.41 
26 *281:159 *281:175 42.4464 
27 *281:175 *2077:A1 43.8621 
28 *281:175 *281:186 4.01857 
29 *281:186 *2072:A1 41.0036 
30 *281:186 *281:197 5.42714 
31 *281:197 *2068:B 42.9093 
32 *281:197 *2073:B 46.1407 
33 *281:159 *2067:A1 23.4971 
34 *281:153 *2066:B 23 
*END

*D_NET *282 0.0414578
*CONN
*I *2197:RESET_B I *D sky130_fd_sc_hd__dfrtp_1
*I *2195:RESET_B I *D sky130_fd_sc_hd__dfrtp_1
*I *2198:RESET_B I *D sky130_fd_sc_hd__dfrtp_1
*I *2200:RESET_B I *D sky130_fd_sc_hd__dfrtp_1
*I *2055:B I *D sky130_fd_sc_hd__nand2_1
*I *2165:RESET_B I *D sky130_fd_sc_hd__dfrtp_1
*I *2164:RESET_B I *D sky130_fd_sc_hd__dfrtp_1
*I *2057:D1 I *D sky130_fd_sc_hd__o2111ai_1
*I *2111:A1 I *D sky130_fd_sc_hd__a21boi_0
*I *2053:A1 I *D sky130_fd_sc_hd__a21oi_1
*I *2196:RESET_B I *D sky130_fd_sc_hd__dfrtp_1
*I *2199:SET_B I *D sky130_fd_sc_hd__dfstp_2
*I *2166:RESET_B I *D sky130_fd_sc_hd__dfrtp_1
*I *2054:B I *D sky130_fd_sc_hd__and2_0
*I *2180:RESET_B I *D sky130_fd_sc_hd__dfrtp_1
*I *2194:RESET_B I *D sky130_fd_sc_hd__dfrtp_1
*I *2044:B1 I *D sky130_fd_sc_hd__o21ai_0
*I *2201:RESET_B I *D sky130_fd_sc_hd__dfrtp_1
*I *2193:RESET_B I *D sky130_fd_sc_hd__dfrtp_1
*I *2179:RESET_B I *D sky130_fd_sc_hd__dfrtp_1
*I *2178:RESET_B I *D sky130_fd_sc_hd__dfrtp_1
*I *2191:RESET_B I *D sky130_fd_sc_hd__dfrtp_1
*I *2192:RESET_B I *D sky130_fd_sc_hd__dfrtp_1
*I *2173:RESET_B I *D sky130_fd_sc_hd__dfrtp_1
*I *2187:RESET_B I *D sky130_fd_sc_hd__dfrtp_1
*I *2177:RESET_B I *D sky130_fd_sc_hd__dfrtp_1
*I *2172:RESET_B I *D sky130_fd_sc_hd__dfrtp_1
*I *2171:RESET_B I *D sky130_fd_sc_hd__dfrtp_1
*I *2186:RESET_B I *D sky130_fd_sc_hd__dfrtp_1
*I *2185:RESET_B I *D sky130_fd_sc_hd__dfrtp_1
*I *2184:RESET_B I *D sky130_fd_sc_hd__dfrtp_1
*I *2342:X O *D sky130_fd_sc_hd__buf_12
*CAP
1 *2197:RESET_B 0.000378129
2 *2195:RESET_B 0.000233018
3 *2198:RESET_B 0.000163798
4 *2200:RESET_B 0
5 *2055:B 4.24211e-05
6 *2165:RESET_B 0.000237614
7 *2164:RESET_B 9.28318e-05
8 *2057:D1 2.14194e-05
9 *2111:A1 0.000369787
10 *2053:A1 0
11 *2196:RESET_B 0.000668089
12 *2199:SET_B 0.000830848
13 *2166:RESET_B 6.76188e-05
14 *2054:B 0.000124096
15 *2180:RESET_B 0
16 *2194:RESET_B 0.00101167
17 *2044:B1 0
18 *2201:RESET_B 0.00026481
19 *2193:RESET_B 0.000126841
20 *2179:RESET_B 0.000619637
21 *2178:RESET_B 0.00101188
22 *2191:RESET_B 0
23 *2192:RESET_B 0.000238744
24 *2173:RESET_B 0.00109022
25 *2187:RESET_B 1.9612e-05
26 *2177:RESET_B 0.00074212
27 *2172:RESET_B 0.00118361
28 *2171:RESET_B 0.000851632
29 *2186:RESET_B 0.000665035
30 *2185:RESET_B 0.000493615
31 *2184:RESET_B 0.000732682
32 *2342:X 0.000100575
33 *282:409 0.00110306
34 *282:365 0.000772972
35 *282:355 0.000789296
36 *282:353 0.000411977
37 *282:351 0.000942245
38 *282:340 0.0012353
39 *282:308 0.000573343
40 *282:295 0.00105911
41 *282:247 0.000691238
42 *282:245 0.000608897
43 *282:210 0.00111433
44 *282:204 0.00112282
45 *282:202 0.000639462
46 *282:176 0.000657539
47 *282:130 0.000888744
48 *282:113 0.000439028
49 *282:111 0.000664657
50 *282:109 0.000331749
51 *282:107 0.00122078
52 *282:43 0.000961909
53 *282:8 0.000339642
54 *2054:B *328:8 3.50862e-06
55 *2054:B *345:12 0.000167364
56 *2171:RESET_B *287:8 0
57 *2172:RESET_B *2171:D 0.000140259
58 *2173:RESET_B *2173:D 7.27085e-05
59 *2177:RESET_B *2172:D 0.000143308
60 *2178:RESET_B *292:10 2.40002e-06
61 *2179:RESET_B *332:28 0.000108681
62 *2185:RESET_B *2184:D 5.58003e-05
63 *2185:RESET_B *340:10 8.57577e-05
64 *2186:RESET_B *336:10 0.000176003
65 *2201:RESET_B *299:8 0.000169683
66 *282:107 *291:10 6.93449e-05
67 *282:176 *332:28 0.000240416
68 *282:247 *328:8 0.000113634
69 *282:247 *345:12 0.00105507
70 *282:308 *343:10 0
71 *2050:A *282:247 0
72 *2052:B *2198:RESET_B 0
73 *2052:B *282:353 0
74 *2052:B *282:355 0
75 *2056:A *282:365 0.000141355
76 *2057:A1 *282:340 2.93747e-05
77 *2057:C1 *282:340 8.06804e-06
78 *2057:C1 *282:351 0.00013174
79 *2069:A_N *2197:RESET_B 0.000164291
80 *2071:A1 *2185:RESET_B 4.91172e-06
81 *2071:A2 *2186:RESET_B 0.00013577
82 *2074:B *2197:RESET_B 0
83 *2082:A1 *282:176 8.15327e-05
84 *2111:A2 *2111:A1 6.17437e-06
85 *2117:B2 *2186:RESET_B 6.17437e-06
86 *2122:A1 *2173:RESET_B 0.00014196
87 *2131:B *2192:RESET_B 0.000189857
88 *2133:A *2178:RESET_B 2.93845e-05
89 *2151:B1 *282:351 2.55176e-05
90 *2151:B2 *282:351 0.000171552
91 *2157:A *2165:RESET_B 0.00014411
92 *2166:CLK *2166:RESET_B 4.60337e-05
93 *2171:CLK *2172:RESET_B 4.56101e-05
94 *2172:CLK *2177:RESET_B 0.000170348
95 *2184:CLK *2185:RESET_B 7.55918e-06
96 *2186:CLK *2186:RESET_B 6.86826e-05
97 *2187:D *282:130 2.64616e-05
98 *2194:CLK *282:295 8.7769e-05
99 *2194:D *282:295 0.000234534
100 *2199:CLK *282:308 0
101 *2199:CLK *282:340 1.76557e-05
102 *2199:D *282:340 7.73389e-05
103 *2232:A *282:295 7.95762e-05
104 *2245:A *2197:RESET_B 4.85126e-05
105 *2245:A *282:409 0.000267768
106 *2274:A *2164:RESET_B 6.17437e-06
107 *2274:A *282:365 2.31687e-05
108 *2285:A *2178:RESET_B 0.000100477
109 *4:34 *2198:RESET_B 0
110 *4:34 *282:353 0
111 *4:34 *282:355 0
112 *4:34 *282:365 0
113 *42:78 *2201:RESET_B 1.01436e-05
114 *42:97 *2179:RESET_B 1.37246e-05
115 *42:97 *282:202 0
116 *42:101 *2193:RESET_B 9.41704e-05
117 *42:178 *282:176 0
118 *45:8 *2201:RESET_B 0
119 *70:8 *282:111 0.000134767
120 *81:43 *2057:D1 5.90675e-06
121 *81:43 *2111:A1 0
122 *81:43 *282:308 0
123 *81:43 *282:340 3.34457e-05
124 *81:49 *2111:A1 0
125 *84:8 *282:365 0.000146598
126 *88:12 *2197:RESET_B 0.000116314
127 *90:12 *2186:RESET_B 3.67392e-05
128 *94:10 *2186:RESET_B 3.67392e-05
129 *95:23 *2171:RESET_B 0
130 *113:8 *2192:RESET_B 2.97099e-05
131 *113:20 *2178:RESET_B 7.48058e-05
132 *113:20 *2192:RESET_B 5.82853e-05
133 *113:20 *282:107 1.66733e-05
134 *113:20 *282:109 5.20155e-05
135 *113:20 *282:111 6.86633e-05
136 *114:8 *282:113 0
137 *114:8 *282:130 5.36457e-05
138 *118:16 *2193:RESET_B 0.000310641
139 *121:12 *282:202 5.18558e-05
140 *121:25 *282:295 1.35999e-05
141 *123:8 *2111:A1 5.90675e-06
142 *124:76 *2187:RESET_B 6.48049e-05
143 *124:76 *282:113 0.000238985
144 *124:93 *282:111 3.67392e-05
145 *124:93 *282:113 0.000140337
146 *124:110 *282:111 0.000154003
147 *125:33 *282:409 2.83509e-05
148 *125:41 *2196:RESET_B 0.000442206
149 *125:41 *282:295 3.76959e-05
150 *125:41 *282:409 4.88664e-05
151 *135:8 *2192:RESET_B 0.000100477
152 *138:12 *282:295 0.000355743
153 *139:8 *282:295 0.000111106
154 *162:10 *2195:RESET_B 2.14599e-05
155 *162:10 *2197:RESET_B 5.3901e-05
156 *162:14 *2195:RESET_B 2.79653e-05
157 *165:14 *2111:A1 0
158 *165:27 *2111:A1 0
159 *169:10 *2195:RESET_B 0.00035245
160 *170:10 *282:409 5.5792e-05
161 *175:11 *2198:RESET_B 0.000124873
162 *175:47 *2197:RESET_B 0
163 *176:10 *282:355 7.55892e-05
164 *176:10 *282:365 8.03374e-05
165 *177:63 *282:245 4.83893e-05
166 *179:12 *2173:RESET_B 0.000481896
167 *179:96 *2178:RESET_B 0.000144448
168 *181:14 *2171:RESET_B 0
169 *181:14 *2185:RESET_B 5.511e-05
170 *189:8 *282:130 0.000111852
171 *203:23 *2165:RESET_B 0.000331181
172 *211:10 *2111:A1 0
173 *212:10 *282:308 0
174 *213:20 *2195:RESET_B 0.000172111
175 *213:58 *2195:RESET_B 9.04375e-05
176 *213:58 *2197:RESET_B 0.000153677
177 *213:92 *2197:RESET_B 0
178 *213:103 *2197:RESET_B 0
179 *215:10 *2172:RESET_B 4.19048e-05
180 *221:10 *2197:RESET_B 8.4047e-05
181 *222:28 *2197:RESET_B 1.69668e-05
182 *222:28 *282:409 0.000232815
183 *228:10 *2201:RESET_B 0
184 *249:8 *282:365 0.000138747
185 *261:25 *2111:A1 0
186 *261:25 *2199:SET_B 1.01436e-05
187 *261:25 *282:308 0
188 *262:8 *2054:B 2.93747e-05
189 *264:10 *2193:RESET_B 0.000135735
190 *265:8 *282:210 7.28526e-05
191 *265:28 *2194:RESET_B 0.000100486
192 *265:28 *282:204 5.0518e-05
193 *267:10 *2184:RESET_B 0.000191255
194 *267:10 *282:8 2.8661e-05
195 *274:10 *282:107 8.26385e-05
196 *274:10 *282:109 3.84822e-05
197 *275:23 *2178:RESET_B 0.00011794
198 *275:23 *282:107 0
199 *276:10 *2186:RESET_B 0.000119873
200 *276:62 *282:111 4.20446e-05
201 *280:28 *2164:RESET_B 4.05389e-05
202 *280:28 *282:365 0.000103802
*RES
1 *2342:X *282:8 39.9057 
2 *282:8 *2184:RESET_B 19.8368 
3 *2184:RESET_B *2185:RESET_B 38.0579 
4 *2185:RESET_B *282:43 15 
5 *282:43 *2186:RESET_B 27.8118 
6 *282:43 *2171:RESET_B 20.7793 
7 *2171:RESET_B *2172:RESET_B 8.90714 
8 *2172:RESET_B *2177:RESET_B 9.86 
9 *2177:RESET_B *282:107 18.3143 
10 *282:107 *282:109 2.61 
11 *282:109 *282:111 5.77929 
12 *282:111 *282:113 5.075 
13 *282:113 *2187:RESET_B 15.8493 
14 *282:113 *282:130 49.785 
15 *282:130 *2173:RESET_B 12.1489 
16 *282:111 *2192:RESET_B 20.3132 
17 *282:109 *2191:RESET_B 15 
18 *282:107 *2178:RESET_B 30.1525 
19 *2173:RESET_B *282:176 24.3007 
20 *282:176 *2179:RESET_B 16.9057 
21 *282:176 *2193:RESET_B 18.8839 
22 *2179:RESET_B *282:202 25.1914 
23 *282:202 *282:204 2.25786 
24 *282:204 *282:210 32.0271 
25 *282:210 *2201:RESET_B 35.075 
26 *282:210 *2044:B1 23 
27 *282:204 *2194:RESET_B 17.4546 
28 *282:202 *2180:RESET_B 15 
29 *2201:RESET_B *282:245 15.5489 
30 *282:245 *282:247 15.2871 
31 *282:247 *2054:B 40.8793 
32 *282:247 *2166:RESET_B 16.0254 
33 *282:245 *2199:SET_B 16.9057 
34 *2194:RESET_B *282:295 46.5818 
35 *282:295 *2196:RESET_B 4.83679 
36 *2199:SET_B *282:308 18.6664 
37 *282:308 *2053:A1 38 
38 *282:308 *2111:A1 44.1936 
39 *2199:SET_B *282:340 7.88179 
40 *282:340 *2057:D1 23.4971 
41 *282:340 *282:351 27.0557 
42 *282:351 *282:353 1.90571 
43 *282:353 *282:355 6.13143 
44 *282:355 *282:365 25.15 
45 *282:365 *2164:RESET_B 1.50179 
46 *282:365 *2165:RESET_B 36.1314 
47 *282:355 *2055:B 38.6214 
48 *282:353 *2200:RESET_B 15 
49 *282:351 *2198:RESET_B 18.6664 
50 *2196:RESET_B *282:409 24.1246 
51 *282:409 *2195:RESET_B 21.7529 
52 *282:409 *2197:RESET_B 22.54 
*END

*D_NET *283 0.000452603
*CONN
*I *2073:A I *D sky130_fd_sc_hd__nor2_1
*I *2277:X O *D sky130_fd_sc_hd__dlygate4sd3_1
*CAP
1 *2073:A 4.26123e-05
2 *2277:X 0.000101015
3 *283:8 0.000143627
4 *2073:B *2073:A 9.84794e-05
5 *96:10 *283:8 0
6 *215:23 *283:8 6.6869e-05
*RES
1 *2277:X *283:8 39.9057 
2 *283:8 *2073:A 39.0979 
*END

*D_NET *284 0.00110835
*CONN
*I *2077:B1 I *D sky130_fd_sc_hd__a21oi_1
*I *2278:X O *D sky130_fd_sc_hd__dlygate4sd3_1
*CAP
1 *2077:B1 2.93892e-05
2 *2278:X 0.000376999
3 *284:8 0.000406388
4 *284:8 *285:8 0
5 *2077:A1 *2077:B1 0.000102971
6 *51:10 *2077:B1 2.10502e-05
7 *51:10 *284:8 0.000141303
8 *99:27 *284:8 2.35118e-06
9 *215:10 *284:8 2.79004e-05
10 *281:186 *284:8 0
11 *281:197 *284:8 0
*RES
1 *2278:X *284:8 45.8921 
2 *284:8 *2077:B1 39.0979 
*END

*D_NET *285 0.000497883
*CONN
*I *2172:D I *D sky130_fd_sc_hd__dfrtp_1
*I *2279:X O *D sky130_fd_sc_hd__dlygate4sd3_1
*CAP
1 *2172:D 5.73901e-05
2 *2279:X 0.000119898
3 *285:8 0.000177288
4 *2177:RESET_B *2172:D 0.000143308
5 *270:10 *285:8 0
6 *284:8 *285:8 0
*RES
1 *2279:X *285:8 39.5536 
2 *285:8 *2172:D 39.5743 
*END

*D_NET *286 0.00067386
*CONN
*I *2068:A I *D sky130_fd_sc_hd__nor2_1
*I *2280:X O *D sky130_fd_sc_hd__dlygate4sd3_1
*CAP
1 *2068:A 0
2 *2280:X 0.000178154
3 *286:6 0.000178154
4 *2281:A *286:6 0.000317553
*RES
1 *2280:X *286:6 27.4329 
2 *286:6 *2068:A 23 
*END

*D_NET *287 0.000832116
*CONN
*I *2072:B1 I *D sky130_fd_sc_hd__a21oi_1
*I *2281:X O *D sky130_fd_sc_hd__dlygate4sd3_1
*CAP
1 *2072:B1 0.000115142
2 *2281:X 0.00025409
3 *287:8 0.000369232
4 *287:8 *289:8 0
5 *2171:CLK *287:8 0
6 *2171:RESET_B *287:8 0
7 *2282:A *2072:B1 9.36522e-05
8 *181:14 *287:8 0
9 *204:10 *287:8 0
10 *269:23 *287:8 0
*RES
1 *2281:X *287:8 42.3707 
2 *287:8 *2072:B1 40.5271 
*END

*D_NET *288 0.000512131
*CONN
*I *2048:B1_N I *D sky130_fd_sc_hd__a21boi_0
*I *2336:X O *D sky130_fd_sc_hd__buf_2
*CAP
1 *2048:B1_N 0
2 *2336:X 0.000191945
3 *288:10 0.000191945
4 *29:9 *288:10 1.94812e-05
5 *266:14 *288:10 0.000108761
*RES
1 *2336:X *288:10 41.1279 
2 *288:10 *2048:B1_N 38 
*END

*D_NET *289 0.000485954
*CONN
*I *2171:D I *D sky130_fd_sc_hd__dfrtp_1
*I *2282:X O *D sky130_fd_sc_hd__dlygate4sd3_1
*CAP
1 *2171:D 6.23332e-05
2 *2282:X 9.13662e-05
3 *289:8 0.000153699
4 *2171:CLK *2171:D 6.17437e-06
5 *2171:CLK *289:8 3.21223e-05
6 *2172:RESET_B *2171:D 0.000140259
7 *287:8 *289:8 0
*RES
1 *2282:X *289:8 39.5536 
2 *289:8 *2171:D 39.5743 
*END

*D_NET *290 0.000469411
*CONN
*I *2093:A I *D sky130_fd_sc_hd__nor2_1
*I *2283:X O *D sky130_fd_sc_hd__dlygate4sd3_1
*CAP
1 *2093:A 8.89236e-05
2 *2283:X 7.54794e-05
3 *290:8 0.000164403
4 *111:10 *2093:A 2.93747e-05
5 *111:10 *290:8 4.08537e-05
6 *253:25 *290:8 7.03766e-05
7 *274:10 *290:8 0
*RES
1 *2283:X *290:8 39.9057 
2 *290:8 *2093:A 39.5743 
*END

*D_NET *291 0.000761908
*CONN
*I *2096:B1 I *D sky130_fd_sc_hd__a21oi_1
*I *2284:X O *D sky130_fd_sc_hd__dlygate4sd3_1
*CAP
1 *2096:B1 0
2 *2284:X 0.000265213
3 *291:10 0.000265213
4 *2096:A1 *291:10 0.000162137
5 *274:10 *291:10 0
6 *282:107 *291:10 6.93449e-05
*RES
1 *2284:X *291:10 43.4686 
2 *291:10 *2096:B1 38 
*END

*D_NET *292 0.000628216
*CONN
*I *2177:D I *D sky130_fd_sc_hd__dfrtp_1
*I *2285:X O *D sky130_fd_sc_hd__dlygate4sd3_1
*CAP
1 *2177:D 0
2 *2285:X 0.000200824
3 *292:10 0.000200824
4 *2096:A1 *292:10 0.000114083
5 *2178:RESET_B *292:10 2.40002e-06
6 *2285:A *292:10 1.73399e-05
7 *113:20 *292:10 3.71251e-05
8 *275:23 *292:10 5.56203e-05
*RES
1 *2285:X *292:10 41.6043 
2 *292:10 *2177:D 38 
*END

*D_NET *293 0.00105261
*CONN
*I *2110:A0 I *D sky130_fd_sc_hd__mux2_1
*I *2286:X O *D sky130_fd_sc_hd__dlygate4sd3_1
*CAP
1 *2110:A0 0
2 *2286:X 0.000224864
3 *293:6 0.000224864
4 *2110:S *293:6 0.000570592
5 *2260:A *293:6 3.22879e-05
*RES
1 *2286:X *293:6 29.3386 
2 *293:6 *2110:A0 23 
*END

*D_NET *294 0.00111213
*CONN
*I *2182:D I *D sky130_fd_sc_hd__dfrtp_1
*I *2287:X O *D sky130_fd_sc_hd__dlygate4sd3_1
*CAP
1 *2182:D 0
2 *2287:X 0.000423832
3 *294:10 0.000423832
4 *2168:RESET_B *294:10 4.99842e-05
5 *81:8 *294:10 0.00014411
6 *280:94 *294:10 7.03766e-05
*RES
1 *2287:X *294:10 44.815 
2 *294:10 *2182:D 38 
*END

*D_NET *295 0.000489173
*CONN
*I *2099:A I *D sky130_fd_sc_hd__nor2_1
*I *2288:X O *D sky130_fd_sc_hd__dlygate4sd3_1
*CAP
1 *2099:A 0
2 *2288:X 0.000148218
3 *295:10 0.000148218
4 *42:204 *295:10 0
5 *254:23 *295:10 0.000192736
*RES
1 *2288:X *295:10 40.8793 
2 *295:10 *2099:A 38 
*END

*D_NET *296 0.000108552
*CONN
*I *2100:B1 I *D sky130_fd_sc_hd__a21oi_1
*I *2289:X O *D sky130_fd_sc_hd__dlygate4sd3_1
*CAP
1 *2100:B1 2.51334e-05
2 *2289:X 2.51334e-05
3 *2100:A2 *2100:B1 5.82853e-05
*RES
1 *2289:X *2100:B1 46.6214 
*END

*D_NET *297 0.000730055
*CONN
*I *2178:D I *D sky130_fd_sc_hd__dfrtp_1
*I *2290:X O *D sky130_fd_sc_hd__dlygate4sd3_1
*CAP
1 *2178:D 0
2 *2290:X 0.000281756
3 *297:10 0.000281756
4 *57:10 *297:10 5.56306e-05
5 *116:10 *297:10 0.000110913
*RES
1 *2290:X *297:10 42.0807 
2 *297:10 *2178:D 38 
*END

*D_NET *298 0.000513075
*CONN
*I *2066:A I *D sky130_fd_sc_hd__nor2_1
*I *2291:X O *D sky130_fd_sc_hd__dlygate4sd3_1
*CAP
1 *2066:A 0.000143267
2 *2291:X 9.09592e-05
3 *298:8 0.000234226
4 *2174:RESET_B *298:8 3.84486e-05
5 *49:8 *2066:A 6.17437e-06
*RES
1 *2291:X *298:8 39.9057 
2 *298:8 *2066:A 40.5271 
*END

*D_NET *299 0.00656965
*CONN
*I *2372:A I *D sky130_fd_sc_hd__buf_2
*I *2045:A I *D sky130_fd_sc_hd__inv_1
*I *2044:Y O *D sky130_fd_sc_hd__o21ai_0
*CAP
1 *2372:A 0.000173244
2 *2045:A 2.09841e-06
3 *2044:Y 6.7227e-05
4 *299:14 0.0015679
5 *299:10 0.00139256
6 *299:8 6.7227e-05
7 *2201:RESET_B *299:8 0.000169683
8 *2358:A *2045:A 6.65671e-06
9 *2358:A *2372:A 4.33987e-05
10 *2358:A *299:14 2.31082e-05
11 *26:10 *2372:A 0.000100805
12 *45:8 *299:8 4.83778e-05
13 *261:19 *299:14 0.00290737
14 *261:25 *299:8 0
*RES
1 *2044:Y *299:8 40.2579 
2 *299:8 *299:10 15 
3 *299:10 *299:14 42.2209 
4 *299:14 *2045:A 23.2745 
5 *299:14 *2372:A 27.4691 
*END

*D_NET *300 0.000487932
*CONN
*I *2067:B1 I *D sky130_fd_sc_hd__a21oi_1
*I *2292:X O *D sky130_fd_sc_hd__dlygate4sd3_1
*CAP
1 *2067:B1 0.000104219
2 *2292:X 0.000104219
3 *281:159 *2067:B1 0.000279493
*RES
1 *2292:X *2067:B1 49.0036 
*END

*D_NET *301 0.000554979
*CONN
*I *2170:D I *D sky130_fd_sc_hd__dfrtp_1
*I *2293:X O *D sky130_fd_sc_hd__dlygate4sd3_1
*CAP
1 *2170:D 0.000165385
2 *2293:X 0.000112104
3 *301:8 0.00027749
*RES
1 *2293:X *301:8 39.9057 
2 *301:8 *2170:D 41.0036 
*END

*D_NET *302 0.000121832
*CONN
*I *2107:A I *D sky130_fd_sc_hd__nor2_1
*I *2294:X O *D sky130_fd_sc_hd__dlygate4sd3_1
*CAP
1 *2107:A 1.82394e-05
2 *2294:X 1.82394e-05
3 *2107:B *2107:A 5.58003e-05
4 *122:10 *2107:A 2.95526e-05
*RES
1 *2294:X *2107:A 46.6214 
*END

*D_NET *303 0.000126903
*CONN
*I *2108:B1 I *D sky130_fd_sc_hd__a21oi_1
*I *2295:X O *D sky130_fd_sc_hd__dlygate4sd3_1
*CAP
1 *2108:B1 6.74574e-06
2 *2295:X 6.74574e-06
3 *42:80 *2108:B1 5.67058e-05
4 *59:12 *2108:B1 5.67058e-05
*RES
1 *2295:X *2108:B1 46.6214 
*END

*D_NET *304 0.000567578
*CONN
*I *2180:D I *D sky130_fd_sc_hd__dfrtp_1
*I *2296:X O *D sky130_fd_sc_hd__dlygate4sd3_1
*CAP
1 *2180:D 0.000170062
2 *2296:X 6.51997e-05
3 *304:8 0.000235261
4 *124:54 *304:8 2.14486e-05
5 *179:32 *2180:D 7.5607e-05
*RES
1 *2296:X *304:8 39.2014 
2 *304:8 *2180:D 40.4339 
*END

*D_NET *305 0.000229783
*CONN
*I *2091:A I *D sky130_fd_sc_hd__nor2_1
*I *2297:X O *D sky130_fd_sc_hd__dlygate4sd3_1
*CAP
1 *2091:A 9.65638e-05
2 *2297:X 9.65638e-05
3 *110:10 *2091:A 3.66555e-05
*RES
1 *2297:X *2091:A 48.0507 
*END

*D_NET *306 0.000647534
*CONN
*I *2092:B1 I *D sky130_fd_sc_hd__a21oi_1
*I *2298:X O *D sky130_fd_sc_hd__dlygate4sd3_1
*CAP
1 *2092:B1 0
2 *2298:X 0.000267964
3 *306:10 0.000267964
4 *109:10 *306:10 2.96369e-05
5 *273:6 *306:10 8.19692e-05
6 *281:29 *306:10 0
*RES
1 *2298:X *306:10 42.0807 
2 *306:10 *2092:B1 38 
*END

*D_NET *307 0.000639771
*CONN
*I *2176:D I *D sky130_fd_sc_hd__dfrtp_1
*I *2299:X O *D sky130_fd_sc_hd__dlygate4sd3_1
*CAP
1 *2176:D 0.000125845
2 *2299:X 7.9369e-05
3 *307:8 0.000205214
4 *2190:RESET_B *2176:D 8.74649e-05
5 *281:29 *307:8 0.000141879
*RES
1 *2299:X *307:8 39.9057 
2 *307:8 *2176:D 40.5271 
*END

*D_NET *308 6.69045e-05
*CONN
*I *2084:A I *D sky130_fd_sc_hd__nor2_1
*I *2300:X O *D sky130_fd_sc_hd__dlygate4sd3_1
*CAP
1 *2084:A 3.34522e-05
2 *2300:X 3.34522e-05
*RES
1 *2300:X *2084:A 46.6214 
*END

*D_NET *309 0.00089283
*CONN
*I *2085:B1 I *D sky130_fd_sc_hd__a21oi_1
*I *2301:X O *D sky130_fd_sc_hd__dlygate4sd3_1
*CAP
1 *2085:B1 0
2 *2301:X 0.000100145
3 *309:6 0.000100145
4 *2085:A1 *309:6 0.000497763
5 *53:8 *309:6 0.000162572
6 *196:6 *309:6 3.22051e-05
*RES
1 *2301:X *309:6 28.3857 
2 *309:6 *2085:B1 23 
*END

*D_NET *310 0.00363746
*CONN
*I *2373:A I *D sky130_fd_sc_hd__buf_2
*I *2056:Y O *D sky130_fd_sc_hd__nor2_1
*CAP
1 *2373:A 0
2 *2056:Y 0
3 *310:8 0.00179966
4 *310:6 0.00179966
5 *310:8 *339:8 3.81391e-05
6 *167:10 *310:8 0
*RES
1 *2056:Y *310:6 38 
2 *310:6 *310:8 36.0636 
3 *310:8 *2373:A 38 
*END

*D_NET *311 0.000955494
*CONN
*I *2174:D I *D sky130_fd_sc_hd__dfrtp_1
*I *2302:X O *D sky130_fd_sc_hd__dlygate4sd3_1
*CAP
1 *2174:D 0
2 *2302:X 0.000297666
3 *311:10 0.000297666
4 *2174:RESET_B *311:10 0
5 *281:153 *311:10 0.000360161
*RES
1 *2302:X *311:10 44.2971 
2 *311:10 *2174:D 38 
*END

*D_NET *312 0.000754408
*CONN
*I *2103:A I *D sky130_fd_sc_hd__nor2_1
*I *2303:X O *D sky130_fd_sc_hd__dlygate4sd3_1
*CAP
1 *2103:A 0
2 *2303:X 0.000377204
3 *312:10 0.000377204
*RES
1 *2303:X *312:10 43.2614 
2 *312:10 *2103:A 38 
*END

*D_NET *313 0.000126903
*CONN
*I *2104:B1 I *D sky130_fd_sc_hd__a21oi_1
*I *2304:X O *D sky130_fd_sc_hd__dlygate4sd3_1
*CAP
1 *2104:B1 6.74574e-06
2 *2304:X 6.74574e-06
3 *42:101 *2104:B1 5.67058e-05
4 *118:16 *2104:B1 5.67058e-05
*RES
1 *2304:X *2104:B1 46.6214 
*END

*D_NET *314 0.000863045
*CONN
*I *2179:D I *D sky130_fd_sc_hd__dfrtp_1
*I *2305:X O *D sky130_fd_sc_hd__dlygate4sd3_1
*CAP
1 *2179:D 0
2 *2305:X 0.000297438
3 *314:10 0.000297438
4 *42:97 *314:10 0
5 *118:16 *314:10 0.000268169
6 *179:22 *314:10 0
7 *242:8 *314:10 0
*RES
1 *2305:X *314:10 43.4686 
2 *314:10 *2179:D 38 
*END

*D_NET *315 0.00108518
*CONN
*I *2087:A I *D sky130_fd_sc_hd__nor2_1
*I *2306:X O *D sky130_fd_sc_hd__dlygate4sd3_1
*CAP
1 *2087:A 0
2 *2306:X 0.000476109
3 *315:10 0.000476109
4 *315:10 *2175:D 7.24484e-05
5 *2087:B *315:10 1.37712e-05
6 *107:10 *315:10 0
7 *248:6 *315:10 2.30292e-05
8 *281:114 *315:10 2.37093e-05
*RES
1 *2306:X *315:10 44.815 
2 *315:10 *2087:A 38 
*END

*D_NET *316 0.000370834
*CONN
*I *2088:B1 I *D sky130_fd_sc_hd__a21oi_1
*I *2307:X O *D sky130_fd_sc_hd__dlygate4sd3_1
*CAP
1 *2088:B1 0
2 *2307:X 0.000132373
3 *316:10 0.000132373
4 *107:10 *316:10 0
5 *272:12 *316:10 8.62876e-05
6 *281:114 *316:10 6.07611e-06
7 *281:127 *316:10 1.37246e-05
*RES
1 *2307:X *316:10 40.175 
2 *316:10 *2088:B1 38 
*END

*D_NET *317 0.000913885
*CONN
*I *2175:D I *D sky130_fd_sc_hd__dfrtp_1
*I *2308:X O *D sky130_fd_sc_hd__dlygate4sd3_1
*CAP
1 *2175:D 0.000284086
2 *2308:X 9.07291e-05
3 *317:8 0.000374815
4 *2175:RESET_B *2175:D 4.59048e-05
5 *107:10 *317:8 4.59027e-05
6 *281:114 *317:8 0
7 *315:10 *2175:D 7.24484e-05
*RES
1 *2308:X *317:8 39.9057 
2 *317:8 *2175:D 43.3857 
*END

*D_NET *318 0.000863176
*CONN
*I *2060:A I *D sky130_fd_sc_hd__nor2_1
*I *2309:X O *D sky130_fd_sc_hd__dlygate4sd3_1
*CAP
1 *2060:A 0.000185326
2 *2309:X 0.000109703
3 *318:8 0.000295028
4 *86:10 *2060:A 0.000247704
5 *86:10 *318:8 2.5415e-05
6 *277:120 *318:8 0
*RES
1 *2309:X *318:8 39.9057 
2 *318:8 *2060:A 42.9093 
*END

*D_NET *319 0.00180924
*CONN
*I *2062:B1 I *D sky130_fd_sc_hd__a21oi_1
*I *2310:X O *D sky130_fd_sc_hd__dlygate4sd3_1
*CAP
1 *2062:B1 0.000222159
2 *2310:X 0.000266949
3 *319:8 0.000489107
4 *2087:B *2062:B1 5.58003e-05
5 *2311:A *2062:B1 0.000114161
6 *107:10 *2062:B1 0.000230718
7 *263:21 *319:8 6.68378e-05
8 *281:101 *2062:B1 0.000363506
*RES
1 *2310:X *319:8 43.4271 
2 *319:8 *2062:B1 45.2914 
*END

*D_NET *320 0.000768235
*CONN
*I *2169:D I *D sky130_fd_sc_hd__dfrtp_1
*I *2311:X O *D sky130_fd_sc_hd__dlygate4sd3_1
*CAP
1 *2169:D 0
2 *2311:X 0.000384118
3 *320:8 0.000384118
4 *2169:RESET_B *320:8 0
*RES
1 *2311:X *320:8 45.54 
2 *320:8 *2169:D 38 
*END

*D_NET *321 0.00351259
*CONN
*I *2374:A I *D sky130_fd_sc_hd__buf_2
*I *2309:A I *D sky130_fd_sc_hd__dlygate4sd3_1
*I *2169:Q O *D sky130_fd_sc_hd__dfrtp_1
*CAP
1 *2374:A 0
2 *2309:A 0.000208211
3 *2169:Q 0.000208211
4 *321:18 0.00154808
5 *321:16 0.00154808
*RES
1 *2169:Q *2309:A 49.48 
2 *2309:A *321:16 23 
3 *321:16 *321:18 28.7307 
4 *321:18 *2374:A 23 
*END

*D_NET *322 0.000516549
*CONN
*I *2109:A0 I *D sky130_fd_sc_hd__mux2_1
*I *2312:X O *D sky130_fd_sc_hd__dlygate4sd3_1
*CAP
1 *2109:A0 0.000157433
2 *2312:X 0.000157433
3 *281:37 *2109:A0 9.92933e-05
4 *281:47 *2109:A0 0.000102389
*RES
1 *2312:X *2109:A0 49.48 
*END

*D_NET *323 0.000276902
*CONN
*I *2181:D I *D sky130_fd_sc_hd__dfrtp_1
*I *2313:X O *D sky130_fd_sc_hd__dlygate4sd3_1
*CAP
1 *2181:D 0
2 *2313:X 8.33173e-05
3 *323:8 8.33173e-05
4 *60:8 *323:8 0.000110267
*RES
1 *2313:X *323:8 39.5536 
2 *323:8 *2181:D 38 
*END

*D_NET *324 0.000401309
*CONN
*I *2081:A I *D sky130_fd_sc_hd__nor2_1
*I *2314:X O *D sky130_fd_sc_hd__dlygate4sd3_1
*CAP
1 *2081:A 4.22019e-05
2 *2314:X 9.06427e-05
3 *324:8 0.000132845
4 *42:178 *324:8 3.70085e-05
5 *42:191 *324:8 1.0092e-05
6 *103:8 *324:8 8.85189e-05
*RES
1 *2314:X *324:8 40.2579 
2 *324:8 *2081:A 38.6214 
*END

*D_NET *325 0.00126433
*CONN
*I *2082:B1 I *D sky130_fd_sc_hd__a21oi_1
*I *2315:X O *D sky130_fd_sc_hd__dlygate4sd3_1
*CAP
1 *2082:B1 0
2 *2315:X 0.000439016
3 *325:10 0.000439016
4 *42:178 *325:10 0.000382583
5 *118:29 *325:10 0
6 *179:16 *325:10 0
7 *179:70 *325:10 3.7122e-06
*RES
1 *2315:X *325:10 46.0786 
2 *325:10 *2082:B1 38 
*END

*D_NET *326 0.000635653
*CONN
*I *2173:D I *D sky130_fd_sc_hd__dfrtp_1
*I *2316:X O *D sky130_fd_sc_hd__dlygate4sd3_1
*CAP
1 *2173:D 0.000111559
2 *2316:X 8.63323e-05
3 *326:8 0.000197892
4 *2173:RESET_B *2173:D 7.27085e-05
5 *117:21 *326:8 0
6 *179:12 *2173:D 9.67842e-05
7 *179:16 *326:8 7.03766e-05
*RES
1 *2316:X *326:8 39.9057 
2 *326:8 *2173:D 40.5271 
*END

*D_NET *327 0.00208933
*CONN
*I *2046:B I *D sky130_fd_sc_hd__nor3b_1
*I *2163:A1 I *D sky130_fd_sc_hd__o22a_1
*I *2162:A1 I *D sky130_fd_sc_hd__a21boi_0
*I *2317:X O *D sky130_fd_sc_hd__dlygate4sd3_1
*CAP
1 *2046:B 0.000190053
2 *2163:A1 2.1727e-05
3 *2162:A1 9.64084e-05
4 *2317:X 0
5 *327:21 0.000401863
6 *327:4 0.000286492
7 *2156:A *2046:B 0.000143655
8 *2158:C *2046:B 5.31934e-05
9 *2161:B1 *327:21 7.97417e-05
10 *2162:A2 *2162:A1 5.82853e-05
11 *2163:A2 *2046:B 2.18409e-05
12 *2163:A2 *327:21 2.93845e-05
13 *2163:B2 *2046:B 9.31593e-05
14 *2163:B2 *2163:A1 4.00259e-06
15 *2163:B2 *327:21 2.93845e-05
16 *148:50 *2163:A1 0
17 *151:10 *2046:B 4.96717e-05
18 *154:12 *327:21 0.000178641
19 *156:8 *327:21 0.000111392
20 *198:61 *2046:B 0.000240439
*RES
1 *2317:X *327:4 23 
2 *327:4 *2162:A1 24.595 
3 *327:4 *327:21 35.3443 
4 *327:21 *2163:A1 23.4971 
5 *327:21 *2046:B 28.3857 
*END

*D_NET *328 0.000573133
*CONN
*I *2166:D I *D sky130_fd_sc_hd__dfrtp_1
*I *2318:X O *D sky130_fd_sc_hd__dlygate4sd3_1
*CAP
1 *2166:D 0
2 *2318:X 0.000227995
3 *328:8 0.000227995
4 *2054:B *328:8 3.50862e-06
5 *282:247 *328:8 0.000113634
*RES
1 *2318:X *328:8 43.4271 
2 *328:8 *2166:D 38 
*END

*D_NET *329 0.000703789
*CONN
*I *2095:B1 I *D sky130_fd_sc_hd__o21ai_0
*I *2132:A1 I *D sky130_fd_sc_hd__a22o_1
*I *2319:X O *D sky130_fd_sc_hd__dlygate4sd3_1
*CAP
1 *2095:B1 0
2 *2132:A1 8.853e-05
3 *2319:X 0.000102495
4 *329:10 8.853e-05
5 *329:8 0.000102495
6 *113:8 *2132:A1 0.000232049
7 *135:8 *2132:A1 5.40522e-05
8 *181:137 *329:8 3.56377e-05
*RES
1 *2319:X *329:8 39.9057 
2 *329:8 *329:10 15 
3 *329:10 *2132:A1 26.0243 
4 *329:10 *2095:B1 23 
*END

*D_NET *330 0.000464864
*CONN
*I *2191:D I *D sky130_fd_sc_hd__dfrtp_1
*I *2320:X O *D sky130_fd_sc_hd__dlygate4sd3_1
*CAP
1 *2191:D 0
2 *2320:X 0.000128211
3 *330:10 0.000128211
4 *113:20 *330:10 5.28551e-05
5 *275:23 *330:10 5.511e-05
6 *276:62 *330:10 0.000100477
*RES
1 *2320:X *330:10 40.6514 
2 *330:10 *2191:D 38 
*END

*D_NET *331 0.00196417
*CONN
*I *2134:A1 I *D sky130_fd_sc_hd__a22o_1
*I *2098:B1 I *D sky130_fd_sc_hd__o21ai_0
*I *2321:X O *D sky130_fd_sc_hd__dlygate4sd3_1
*CAP
1 *2134:A1 0.000114047
2 *2098:B1 4.03445e-05
3 *2321:X 0.000122902
4 *331:10 0.000277294
5 *2100:A2 *331:10 6.17437e-06
6 *2134:A2 *2134:A1 0.000323904
7 *2134:B2 *2134:A1 0.000584382
8 *115:10 *2098:B1 5.796e-05
9 *115:10 *331:10 9.7473e-05
10 *117:21 *2098:B1 2.40409e-05
11 *117:21 *331:10 9.03765e-06
12 *136:8 *331:10 8.36198e-05
13 *276:62 *2134:A1 0.000222991
*RES
1 *2321:X *331:10 40.175 
2 *331:10 *2098:B1 38.8493 
3 *331:10 *2134:A1 44.3386 
*END

*D_NET *332 0.00604612
*CONN
*I *2303:A I *D sky130_fd_sc_hd__dlygate4sd3_1
*I *2375:A I *D sky130_fd_sc_hd__buf_2
*I *2179:Q O *D sky130_fd_sc_hd__dfrtp_1
*CAP
1 *2303:A 0
2 *2375:A 0
3 *2179:Q 0.000504407
4 *332:28 0.000504407
5 *332:12 0.00016078
6 *332:6 0.00217463
7 *332:4 0.00201385
8 *2082:A1 *332:28 0.000254907
9 *2179:RESET_B *332:28 0.000108681
10 *8:10 *332:12 0
11 *31:10 *332:12 0
12 *42:97 *332:28 8.4047e-05
13 *282:176 *332:28 0.000240416
*RES
1 *2179:Q *332:4 23 
2 *332:4 *332:6 37.3064 
3 *332:6 *332:12 32.9621 
4 *332:12 *2375:A 23 
5 *2179:Q *332:28 47.1557 
6 *332:28 *2303:A 38 
*END

*D_NET *333 0.000267969
*CONN
*I *2192:D I *D sky130_fd_sc_hd__dfrtp_1
*I *2322:X O *D sky130_fd_sc_hd__dlygate4sd3_1
*CAP
1 *2192:D 0
2 *2322:X 0.000133984
3 *333:8 0.000133984
*RES
1 *2322:X *333:8 40.61 
2 *333:8 *2192:D 38 
*END

*D_NET *334 0.00184003
*CONN
*I *2119:A1 I *D sky130_fd_sc_hd__a22o_1
*I *2071:B1 I *D sky130_fd_sc_hd__o21ai_0
*I *2323:X O *D sky130_fd_sc_hd__dlygate4sd3_1
*CAP
1 *2119:A1 0.00024461
2 *2071:B1 3.95013e-05
3 *2323:X 0.000226425
4 *334:10 0.000510537
5 *2119:A1 *335:10 0.000147656
6 *2071:A2 *2119:A1 0.000272918
7 *2324:A *2119:A1 4.70479e-05
8 *95:6 *2119:A1 3.00511e-05
9 *181:14 *2071:B1 4.9858e-05
10 *181:14 *334:10 0.000260047
11 *181:18 *2071:B1 1.13812e-05
*RES
1 *2323:X *334:10 42.9921 
2 *334:10 *2071:B1 38.8493 
3 *334:10 *2119:A1 43.8621 
*END

*D_NET *335 0.000526554
*CONN
*I *2185:D I *D sky130_fd_sc_hd__dfrtp_1
*I *2324:X O *D sky130_fd_sc_hd__dlygate4sd3_1
*CAP
1 *2185:D 0
2 *2324:X 0.000174464
3 *335:10 0.000174464
4 *2119:A1 *335:10 0.000147656
5 *95:23 *335:10 2.99696e-05
*RES
1 *2324:X *335:10 41.1279 
2 *335:10 *2185:D 38 
*END

*D_NET *336 0.00269152
*CONN
*I *2121:A1 I *D sky130_fd_sc_hd__a22o_1
*I *2076:B1 I *D sky130_fd_sc_hd__o21ai_0
*I *2325:X O *D sky130_fd_sc_hd__dlygate4sd3_1
*CAP
1 *2121:A1 0.000264358
2 *2076:B1 0.000235536
3 *2325:X 0.00028089
4 *336:10 0.000780784
5 *2121:A1 *337:10 0.000141352
6 *2076:A2 *2076:B1 0.000143655
7 *2118:B *2076:B1 5.08393e-05
8 *2118:B *336:10 5.0518e-05
9 *2121:B1 *2121:A1 5.12254e-05
10 *2186:CLK *336:10 3.0207e-05
11 *2186:RESET_B *336:10 0.000176003
12 *2326:A *2121:A1 0.000128964
13 *99:6 *2076:B1 5.67058e-05
14 *161:46 *2076:B1 0.000111852
15 *161:46 *2121:A1 1.84959e-05
16 *181:80 *2076:B1 4.95081e-05
17 *281:175 *2076:B1 5.63547e-05
18 *281:175 *2121:A1 1.59094e-05
19 *281:175 *336:10 4.83642e-05
*RES
1 *2325:X *336:10 42.5571 
2 *336:10 *2076:B1 43.9864 
3 *336:10 *2121:A1 43.8621 
*END

*D_NET *337 0.000669258
*CONN
*I *2186:D I *D sky130_fd_sc_hd__dfrtp_1
*I *2326:X O *D sky130_fd_sc_hd__dlygate4sd3_1
*CAP
1 *2186:D 0
2 *2326:X 0.000149491
3 *337:10 0.000149491
4 *2121:A1 *337:10 0.000141352
5 *99:27 *337:10 0.000115526
6 *276:25 *337:10 0.000113398
*RES
1 *2326:X *337:10 41.1279 
2 *337:10 *2186:D 38 
*END

*D_NET *338 0.00094506
*CONN
*I *2110:A1 I *D sky130_fd_sc_hd__mux2_1
*I *2059:A1 I *D sky130_fd_sc_hd__mux2_1
*I *2327:X O *D sky130_fd_sc_hd__dlygate4sd3_1
*CAP
1 *2110:A1 0.000106789
2 *2059:A1 6.80978e-05
3 *2327:X 0.000183843
4 *338:10 0.000358729
5 *81:8 *2110:A1 0
6 *81:8 *338:10 0
7 *255:23 *2110:A1 0
8 *255:23 *338:10 0
9 *266:27 *338:10 2.79004e-05
10 *280:94 *2110:A1 0.000199701
*RES
1 *2327:X *338:10 41.0036 
2 *338:10 *2059:A1 39.0979 
3 *338:10 *2110:A1 40.9621 
*END

*D_NET *339 0.000531297
*CONN
*I *2168:D I *D sky130_fd_sc_hd__dfrtp_1
*I *2328:X O *D sky130_fd_sc_hd__dlygate4sd3_1
*CAP
1 *2168:D 0.000130509
2 *2328:X 7.51726e-05
3 *339:8 0.000205681
4 *2168:CLK *2168:D 8.1796e-05
5 *310:8 *339:8 3.81391e-05
*RES
1 *2328:X *339:8 39.5536 
2 *339:8 *2168:D 40.5271 
*END

*D_NET *340 0.002498
*CONN
*I *2117:A1 I *D sky130_fd_sc_hd__a22o_1
*I *2065:B1 I *D sky130_fd_sc_hd__o21ai_0
*I *2329:X O *D sky130_fd_sc_hd__dlygate4sd3_1
*CAP
1 *2117:A1 0
2 *2065:B1 0.000165577
3 *2329:X 0.000704695
4 *340:10 0.000870273
5 *2065:A1 *2065:B1 1.32314e-05
6 *2067:A2 *2065:B1 3.24854e-05
7 *2185:RESET_B *340:10 8.57577e-05
8 *2264:A *340:10 0.000166297
9 *90:12 *2065:B1 6.49496e-05
10 *181:14 *340:10 2.07509e-05
11 *181:18 *2065:B1 7.6774e-06
12 *181:18 *340:10 5.202e-05
13 *278:32 *2065:B1 0.000137744
14 *279:109 *2065:B1 7.98226e-05
15 *279:109 *340:10 5.75756e-06
16 *281:175 *2065:B1 9.09644e-05
*RES
1 *2329:X *340:10 49.4136 
2 *340:10 *2065:B1 42.9714 
3 *340:10 *2117:A1 38 
*END

*D_NET *341 0.000607609
*CONN
*I *2184:D I *D sky130_fd_sc_hd__dfrtp_1
*I *2330:X O *D sky130_fd_sc_hd__dlygate4sd3_1
*CAP
1 *2184:D 2.73762e-05
2 *2330:X 0.000190984
3 *341:10 0.00021836
4 *2170:CLK *341:10 6.17437e-06
5 *2184:CLK *2184:D 1.05235e-05
6 *2184:CLK *341:10 8.36198e-05
7 *2185:RESET_B *2184:D 5.58003e-05
8 *63:8 *341:10 1.47709e-05
*RES
1 *2330:X *341:10 41.2314 
2 *341:10 *2184:D 38.6214 
*END

*D_NET *342 0.00128832
*CONN
*I *2115:A1 I *D sky130_fd_sc_hd__a22o_1
*I *2061:B1 I *D sky130_fd_sc_hd__o21ai_0
*I *2331:X O *D sky130_fd_sc_hd__dlygate4sd3_1
*CAP
1 *2115:A1 0
2 *2061:B1 7.39329e-05
3 *2331:X 0.000352228
4 *342:19 9.35828e-05
5 *342:6 0.000519744
6 *2114:A *2061:B1 6.17437e-06
7 *183:10 *342:6 9.8111e-05
8 *279:90 *342:19 8.90678e-05
9 *281:92 *342:19 5.54823e-05
*RES
1 *2331:X *342:6 29.815 
2 *342:6 *2061:B1 24.0979 
3 *342:6 *342:19 32.61 
4 *342:19 *2115:A1 23 
*END

*D_NET *343 0.000744419
*CONN
*I *2239:A I *D sky130_fd_sc_hd__dlygate4sd3_1
*I *2199:Q O *D sky130_fd_sc_hd__dfstp_2
*CAP
1 *2239:A 0
2 *2199:Q 0.000317999
3 *343:10 0.000317999
4 *261:19 *343:10 4.05196e-05
5 *261:25 *343:10 6.79006e-05
6 *282:308 *343:10 0
*RES
1 *2199:Q *343:10 42.4329 
2 *343:10 *2239:A 38 
*END

*D_NET *344 0.00271087
*CONN
*I *2247:A I *D sky130_fd_sc_hd__dlygate4sd3_1
*I *2055:A I *D sky130_fd_sc_hd__nand2_1
*I *2200:Q O *D sky130_fd_sc_hd__dfrtp_1
*CAP
1 *2247:A 0
2 *2055:A 0.000500585
3 *2200:Q 0
4 *344:21 0.000589059
5 *344:6 0.00108964
6 *2042:A *344:21 6.67764e-05
7 *4:34 *2055:A 0
8 *4:34 *344:21 0
9 *125:12 *344:21 0.000260144
10 *161:14 *344:21 0.000181317
11 *279:41 *344:21 2.33476e-05
12 *280:14 *2055:A 0
13 *280:14 *344:21 0
*RES
1 *2200:Q *344:6 38 
2 *344:6 *2055:A 46.6793 
3 *344:6 *344:21 27.1179 
4 *344:21 *2247:A 23 
*END

*D_NET *345 0.00319318
*CONN
*I *2236:A I *D sky130_fd_sc_hd__dlygate4sd3_1
*I *2054:A I *D sky130_fd_sc_hd__and2_0
*I *2201:Q O *D sky130_fd_sc_hd__dfrtp_1
*CAP
1 *2236:A 0
2 *2054:A 0
3 *2201:Q 0.000159375
4 *345:24 0.000108791
5 *345:12 0.000575644
6 *345:8 0.000626228
7 *2050:A *345:24 0.00014196
8 *2050:B *345:24 3.22879e-05
9 *2054:B *345:12 0.000167364
10 *80:10 *345:12 4.54525e-05
11 *82:10 *345:24 0.00010018
12 *154:12 *345:12 0
13 *177:63 *345:8 3.70553e-06
14 *177:63 *345:24 8.10066e-05
15 *207:8 *345:24 9.61128e-05
16 *207:10 *345:12 0
17 *282:247 *345:12 0.00105507
*RES
1 *2201:Q *345:8 38.6214 
2 *345:8 *345:12 31.3436 
3 *345:12 *2054:A 23 
4 *2201:Q *345:24 27.4329 
5 *345:24 *2236:A 23 
*END
