*SPEF "ieee 1481-1999"
*DESIGN "sar_controller"
*DATE "04:38:03 Tuesday September 08, 2026"
*VENDOR "The OpenROAD Project"
*PROGRAM "OpenROAD"
*VERSION "26Q1-1024-gdcf36133a"
*DESIGN_FLOW "NAME_SCOPE LOCAL" "PIN_CAP NONE"
*DIVIDER /
*DELIMITER :
*BUS_DELIMITER []
*T_UNIT 1 NS
*C_UNIT 1 PF
*R_UNIT 1 OHM
*L_UNIT 1 HENRY

*NAME_MAP
*3 busy
*4 clk
*5 comparator_bit
*6 comparator_evaluate
*7 data[0]
*8 data[10]
*9 data[11]
*10 data[1]
*11 data[2]
*12 data[3]
*13 data[4]
*14 data[5]
*15 data[6]
*16 data[7]
*17 data[8]
*18 data[9]
*19 data_gain[0]
*20 data_gain[1]
*21 data_valid
*22 gain_latched[0]
*23 gain_latched[1]
*24 gain_sel[0]
*25 gain_sel[1]
*26 ready
*27 rst_n
*28 sample_en
*29 start
*30 trial_code[0]
*31 trial_code[10]
*32 trial_code[11]
*33 trial_code[1]
*34 trial_code[2]
*35 trial_code[3]
*36 trial_code[4]
*37 trial_code[5]
*38 trial_code[6]
*39 trial_code[7]
*40 trial_code[8]
*41 trial_code[9]
*42 _000_
*43 _001_
*44 _002_
*45 _003_
*46 _004_
*47 _005_
*48 _006_
*49 _007_
*50 _008_
*51 _009_
*52 _010_
*53 _011_
*54 _012_
*55 _013_
*56 _014_
*57 _015_
*58 _016_
*59 _017_
*60 _018_
*61 _019_
*62 _020_
*63 _021_
*64 _022_
*65 _023_
*66 _024_
*67 _025_
*68 _026_
*69 _027_
*70 _028_
*71 _029_
*72 _030_
*73 _031_
*74 _032_
*75 _033_
*76 _034_
*77 _035_
*78 _036_
*79 _037_
*80 _038_
*81 _039_
*82 _040_
*83 _041_
*84 _042_
*85 _043_
*86 _044_
*87 _045_
*88 _046_
*89 _047_
*90 _048_
*91 _049_
*92 _050_
*93 _051_
*94 _052_
*95 _053_
*96 _054_
*97 _055_
*98 _056_
*99 _057_
*100 _058_
*101 _059_
*102 _060_
*103 _061_
*104 _062_
*105 _063_
*106 _064_
*107 _065_
*108 _066_
*109 _067_
*110 _068_
*111 _069_
*112 _070_
*113 _071_
*114 _072_
*115 _073_
*116 _074_
*117 _075_
*118 _076_
*119 _077_
*120 _078_
*121 _079_
*122 _080_
*123 _081_
*124 _082_
*125 _083_
*126 _084_
*127 _085_
*128 _086_
*129 _087_
*130 _088_
*131 _089_
*132 _090_
*133 _091_
*134 _092_
*135 _093_
*136 _094_
*137 _095_
*138 _096_
*139 _097_
*140 _098_
*141 _099_
*142 _100_
*143 _101_
*144 _102_
*145 _103_
*146 _104_
*147 _105_
*148 _106_
*149 _107_
*150 _108_
*151 _109_
*152 _110_
*153 _111_
*154 _112_
*155 _113_
*156 _114_
*157 _115_
*158 _116_
*159 _117_
*160 _118_
*161 _119_
*162 _120_
*163 _121_
*164 _122_
*165 _123_
*166 acquisition_left\[0\]
*167 acquisition_left\[1\]
*168 acquisition_left\[2\]
*169 bit_index\[0\]
*170 bit_index\[1\]
*171 bit_index\[2\]
*172 bit_index\[3\]
*173 clk_regs
*174 clknet_0_clk
*175 clknet_0_clk_regs
*176 clknet_1_0__leaf_clk
*177 clknet_2_0__leaf_clk_regs
*178 clknet_2_1__leaf_clk_regs
*179 clknet_2_2__leaf_clk_regs
*180 clknet_2_3__leaf_clk_regs
*181 net1
*182 net10
*183 net100
*184 net101
*185 net102
*186 net103
*187 net104
*188 net105
*189 net106
*190 net107
*191 net108
*192 net109
*193 net11
*194 net110
*195 net111
*196 net112
*197 net113
*198 net114
*199 net115
*200 net116
*201 net117
*202 net118
*203 net119
*204 net12
*205 net120
*206 net121
*207 net122
*208 net123
*209 net124
*210 net125
*211 net126
*212 net127
*213 net128
*214 net129
*215 net13
*216 net130
*217 net131
*218 net132
*219 net133
*220 net134
*221 net135
*222 net136
*223 net137
*224 net138
*225 net139
*226 net14
*227 net140
*228 net141
*229 net142
*230 net143
*231 net144
*232 net145
*233 net146
*234 net147
*235 net148
*236 net149
*237 net15
*238 net150
*239 net151
*240 net152
*241 net153
*242 net154
*243 net155
*244 net156
*245 net157
*246 net158
*247 net159
*248 net16
*249 net160
*250 net161
*251 net162
*252 net17
*253 net18
*254 net19
*255 net2
*256 net20
*257 net21
*258 net22
*259 net23
*260 net24
*261 net25
*262 net26
*263 net27
*264 net28
*265 net29
*266 net3
*267 net30
*268 net31
*269 net32
*270 net33
*271 net34
*272 net35
*273 net36
*274 net37
*275 net38
*276 net39
*277 net4
*278 net40
*279 net41
*280 net42
*281 net43
*282 net44
*283 net45
*284 net46
*285 net47
*286 net48
*287 net49
*288 net5
*289 net50
*290 net51
*291 net52
*292 net53
*293 net54
*294 net55
*295 net56
*296 net57
*297 net58
*298 net59
*299 net6
*300 net60
*301 net61
*302 net62
*303 net63
*304 net64
*305 net65
*306 net66
*307 net67
*308 net68
*309 net69
*310 net7
*311 net70
*312 net71
*313 net72
*314 net73
*315 net74
*316 net75
*317 net76
*318 net77
*319 net78
*320 net79
*321 net8
*322 net80
*323 net81
*324 net82
*325 net83
*326 net84
*327 net85
*328 net86
*329 net87
*330 net88
*331 net89
*332 net9
*333 net90
*334 net91
*335 net92
*336 net93
*337 net94
*338 net95
*339 net96
*340 net97
*341 net98
*342 net99
*343 state\[0\]
*344 state\[1\]
*345 state\[2\]
*346 FILLER_0_109
*347 FILLER_0_113
*348 FILLER_0_125
*349 FILLER_0_137
*350 FILLER_0_141
*351 FILLER_0_15
*352 FILLER_0_153
*353 FILLER_0_161
*354 FILLER_0_167
*355 FILLER_0_169
*356 FILLER_0_191
*357 FILLER_0_195
*358 FILLER_0_197
*359 FILLER_0_209
*360 FILLER_0_221
*361 FILLER_0_225
*362 FILLER_0_237
*363 FILLER_0_249
*364 FILLER_0_253
*365 FILLER_0_265
*366 FILLER_0_27
*367 FILLER_0_277
*368 FILLER_0_281
*369 FILLER_0_29
*370 FILLER_0_293
*371 FILLER_0_3
*372 FILLER_0_41
*373 FILLER_0_53
*374 FILLER_0_57
*375 FILLER_0_69
*376 FILLER_0_81
*377 FILLER_0_85
*378 FILLER_0_97
*379 FILLER_10_109
*380 FILLER_10_121
*381 FILLER_10_131
*382 FILLER_10_141
*383 FILLER_10_15
*384 FILLER_10_153
*385 FILLER_10_161
*386 FILLER_10_190
*387 FILLER_10_197
*388 FILLER_10_209
*389 FILLER_10_221
*390 FILLER_10_233
*391 FILLER_10_245
*392 FILLER_10_251
*393 FILLER_10_253
*394 FILLER_10_265
*395 FILLER_10_27
*396 FILLER_10_277
*397 FILLER_10_289
*398 FILLER_10_29
*399 FILLER_10_297
*400 FILLER_10_3
*401 FILLER_10_41
*402 FILLER_10_53
*403 FILLER_10_65
*404 FILLER_10_77
*405 FILLER_10_83
*406 FILLER_10_85
*407 FILLER_10_97
*408 FILLER_11_105
*409 FILLER_11_111
*410 FILLER_11_113
*411 FILLER_11_119
*412 FILLER_11_15
*413 FILLER_11_151
*414 FILLER_11_163
*415 FILLER_11_167
*416 FILLER_11_189
*417 FILLER_11_206
*418 FILLER_11_218
*419 FILLER_11_225
*420 FILLER_11_237
*421 FILLER_11_249
*422 FILLER_11_261
*423 FILLER_11_27
*424 FILLER_11_273
*425 FILLER_11_279
*426 FILLER_11_281
*427 FILLER_11_293
*428 FILLER_11_3
*429 FILLER_11_39
*430 FILLER_11_51
*431 FILLER_11_55
*432 FILLER_11_57
*433 FILLER_11_69
*434 FILLER_11_81
*435 FILLER_11_93
*436 FILLER_12_123
*437 FILLER_12_141
*438 FILLER_12_15
*439 FILLER_12_153
*440 FILLER_12_165
*441 FILLER_12_193
*442 FILLER_12_197
*443 FILLER_12_210
*444 FILLER_12_220
*445 FILLER_12_232
*446 FILLER_12_244
*447 FILLER_12_253
*448 FILLER_12_265
*449 FILLER_12_27
*450 FILLER_12_277
*451 FILLER_12_289
*452 FILLER_12_29
*453 FILLER_12_297
*454 FILLER_12_3
*455 FILLER_12_41
*456 FILLER_12_53
*457 FILLER_12_65
*458 FILLER_12_77
*459 FILLER_12_83
*460 FILLER_12_85
*461 FILLER_12_97
*462 FILLER_13_105
*463 FILLER_13_111
*464 FILLER_13_15
*465 FILLER_13_155
*466 FILLER_13_160
*467 FILLER_13_169
*468 FILLER_13_192
*469 FILLER_13_198
*470 FILLER_13_219
*471 FILLER_13_223
*472 FILLER_13_225
*473 FILLER_13_237
*474 FILLER_13_249
*475 FILLER_13_261
*476 FILLER_13_27
*477 FILLER_13_273
*478 FILLER_13_279
*479 FILLER_13_281
*480 FILLER_13_293
*481 FILLER_13_3
*482 FILLER_13_39
*483 FILLER_13_51
*484 FILLER_13_55
*485 FILLER_13_57
*486 FILLER_13_69
*487 FILLER_13_81
*488 FILLER_13_93
*489 FILLER_14_105
*490 FILLER_14_130
*491 FILLER_14_149
*492 FILLER_14_15
*493 FILLER_14_157
*494 FILLER_14_179
*495 FILLER_14_185
*496 FILLER_14_194
*497 FILLER_14_197
*498 FILLER_14_201
*499 FILLER_14_210
*500 FILLER_14_224
*501 FILLER_14_236
*502 FILLER_14_248
*503 FILLER_14_253
*504 FILLER_14_265
*505 FILLER_14_27
*506 FILLER_14_277
*507 FILLER_14_289
*508 FILLER_14_29
*509 FILLER_14_297
*510 FILLER_14_3
*511 FILLER_14_41
*512 FILLER_14_53
*513 FILLER_14_65
*514 FILLER_14_77
*515 FILLER_14_83
*516 FILLER_14_85
*517 FILLER_14_97
*518 FILLER_15_105
*519 FILLER_15_111
*520 FILLER_15_113
*521 FILLER_15_125
*522 FILLER_15_139
*523 FILLER_15_15
*524 FILLER_15_155
*525 FILLER_15_159
*526 FILLER_15_167
*527 FILLER_15_169
*528 FILLER_15_181
*529 FILLER_15_193
*530 FILLER_15_201
*531 FILLER_15_210
*532 FILLER_15_222
*533 FILLER_15_225
*534 FILLER_15_237
*535 FILLER_15_249
*536 FILLER_15_261
*537 FILLER_15_27
*538 FILLER_15_273
*539 FILLER_15_279
*540 FILLER_15_281
*541 FILLER_15_293
*542 FILLER_15_3
*543 FILLER_15_39
*544 FILLER_15_51
*545 FILLER_15_55
*546 FILLER_15_57
*547 FILLER_15_69
*548 FILLER_15_81
*549 FILLER_15_93
*550 FILLER_16_109
*551 FILLER_16_121
*552 FILLER_16_138
*553 FILLER_16_141
*554 FILLER_16_15
*555 FILLER_16_165
*556 FILLER_16_177
*557 FILLER_16_189
*558 FILLER_16_195
*559 FILLER_16_197
*560 FILLER_16_209
*561 FILLER_16_233
*562 FILLER_16_245
*563 FILLER_16_251
*564 FILLER_16_253
*565 FILLER_16_265
*566 FILLER_16_27
*567 FILLER_16_277
*568 FILLER_16_289
*569 FILLER_16_29
*570 FILLER_16_297
*571 FILLER_16_3
*572 FILLER_16_41
*573 FILLER_16_53
*574 FILLER_16_65
*575 FILLER_16_77
*576 FILLER_16_83
*577 FILLER_16_85
*578 FILLER_16_97
*579 FILLER_17_113
*580 FILLER_17_15
*581 FILLER_17_167
*582 FILLER_17_169
*583 FILLER_17_175
*584 FILLER_17_187
*585 FILLER_17_199
*586 FILLER_17_211
*587 FILLER_17_223
*588 FILLER_17_225
*589 FILLER_17_237
*590 FILLER_17_249
*591 FILLER_17_261
*592 FILLER_17_27
*593 FILLER_17_273
*594 FILLER_17_279
*595 FILLER_17_281
*596 FILLER_17_293
*597 FILLER_17_3
*598 FILLER_17_39
*599 FILLER_17_51
*600 FILLER_17_55
*601 FILLER_17_57
*602 FILLER_17_69
*603 FILLER_17_81
*604 FILLER_17_89
*605 FILLER_18_11
*606 FILLER_18_15
*607 FILLER_18_161
*608 FILLER_18_173
*609 FILLER_18_197
*610 FILLER_18_216
*611 FILLER_18_227
*612 FILLER_18_239
*613 FILLER_18_251
*614 FILLER_18_253
*615 FILLER_18_265
*616 FILLER_18_27
*617 FILLER_18_277
*618 FILLER_18_289
*619 FILLER_18_29
*620 FILLER_18_297
*621 FILLER_18_41
*622 FILLER_18_53
*623 FILLER_18_65
*624 FILLER_18_77
*625 FILLER_18_83
*626 FILLER_18_85
*627 FILLER_18_93
*628 FILLER_19_113
*629 FILLER_19_118
*630 FILLER_19_15
*631 FILLER_19_169
*632 FILLER_19_185
*633 FILLER_19_197
*634 FILLER_19_225
*635 FILLER_19_237
*636 FILLER_19_249
*637 FILLER_19_261
*638 FILLER_19_27
*639 FILLER_19_273
*640 FILLER_19_279
*641 FILLER_19_281
*642 FILLER_19_293
*643 FILLER_19_3
*644 FILLER_19_39
*645 FILLER_19_51
*646 FILLER_19_55
*647 FILLER_19_57
*648 FILLER_19_69
*649 FILLER_19_81
*650 FILLER_19_93
*651 FILLER_19_99
*652 FILLER_1_105
*653 FILLER_1_111
*654 FILLER_1_113
*655 FILLER_1_125
*656 FILLER_1_137
*657 FILLER_1_149
*658 FILLER_1_15
*659 FILLER_1_161
*660 FILLER_1_167
*661 FILLER_1_175
*662 FILLER_1_185
*663 FILLER_1_197
*664 FILLER_1_209
*665 FILLER_1_221
*666 FILLER_1_225
*667 FILLER_1_237
*668 FILLER_1_249
*669 FILLER_1_261
*670 FILLER_1_27
*671 FILLER_1_273
*672 FILLER_1_279
*673 FILLER_1_281
*674 FILLER_1_293
*675 FILLER_1_3
*676 FILLER_1_39
*677 FILLER_1_51
*678 FILLER_1_55
*679 FILLER_1_57
*680 FILLER_1_69
*681 FILLER_1_81
*682 FILLER_1_93
*683 FILLER_20_103
*684 FILLER_20_110
*685 FILLER_20_132
*686 FILLER_20_141
*687 FILLER_20_15
*688 FILLER_20_157
*689 FILLER_20_161
*690 FILLER_20_168
*691 FILLER_20_175
*692 FILLER_20_200
*693 FILLER_20_216
*694 FILLER_20_228
*695 FILLER_20_240
*696 FILLER_20_253
*697 FILLER_20_265
*698 FILLER_20_27
*699 FILLER_20_277
*700 FILLER_20_289
*701 FILLER_20_29
*702 FILLER_20_3
*703 FILLER_20_41
*704 FILLER_20_53
*705 FILLER_20_65
*706 FILLER_20_77
*707 FILLER_20_83
*708 FILLER_20_85
*709 FILLER_20_97
*710 FILLER_21_105
*711 FILLER_21_111
*712 FILLER_21_113
*713 FILLER_21_126
*714 FILLER_21_132
*715 FILLER_21_137
*716 FILLER_21_15
*717 FILLER_21_155
*718 FILLER_21_167
*719 FILLER_21_169
*720 FILLER_21_187
*721 FILLER_21_205
*722 FILLER_21_213
*723 FILLER_21_219
*724 FILLER_21_223
*725 FILLER_21_225
*726 FILLER_21_237
*727 FILLER_21_249
*728 FILLER_21_261
*729 FILLER_21_27
*730 FILLER_21_273
*731 FILLER_21_279
*732 FILLER_21_281
*733 FILLER_21_293
*734 FILLER_21_3
*735 FILLER_21_39
*736 FILLER_21_51
*737 FILLER_21_55
*738 FILLER_21_57
*739 FILLER_21_69
*740 FILLER_21_81
*741 FILLER_21_93
*742 FILLER_22_137
*743 FILLER_22_141
*744 FILLER_22_15
*745 FILLER_22_192
*746 FILLER_22_197
*747 FILLER_22_205
*748 FILLER_22_236
*749 FILLER_22_248
*750 FILLER_22_253
*751 FILLER_22_265
*752 FILLER_22_27
*753 FILLER_22_277
*754 FILLER_22_289
*755 FILLER_22_29
*756 FILLER_22_3
*757 FILLER_22_41
*758 FILLER_22_53
*759 FILLER_22_65
*760 FILLER_22_77
*761 FILLER_22_83
*762 FILLER_22_85
*763 FILLER_22_97
*764 FILLER_23_121
*765 FILLER_23_133
*766 FILLER_23_139
*767 FILLER_23_15
*768 FILLER_23_165
*769 FILLER_23_181
*770 FILLER_23_189
*771 FILLER_23_219
*772 FILLER_23_223
*773 FILLER_23_233
*774 FILLER_23_245
*775 FILLER_23_257
*776 FILLER_23_269
*777 FILLER_23_27
*778 FILLER_23_277
*779 FILLER_23_281
*780 FILLER_23_293
*781 FILLER_23_3
*782 FILLER_23_39
*783 FILLER_23_51
*784 FILLER_23_55
*785 FILLER_23_57
*786 FILLER_23_69
*787 FILLER_23_81
*788 FILLER_23_89
*789 FILLER_24_106
*790 FILLER_24_11
*791 FILLER_24_112
*792 FILLER_24_117
*793 FILLER_24_129
*794 FILLER_24_141
*795 FILLER_24_147
*796 FILLER_24_152
*797 FILLER_24_175
*798 FILLER_24_194
*799 FILLER_24_197
*800 FILLER_24_225
*801 FILLER_24_23
*802 FILLER_24_237
*803 FILLER_24_249
*804 FILLER_24_253
*805 FILLER_24_265
*806 FILLER_24_27
*807 FILLER_24_277
*808 FILLER_24_289
*809 FILLER_24_29
*810 FILLER_24_297
*811 FILLER_24_41
*812 FILLER_24_53
*813 FILLER_24_65
*814 FILLER_24_77
*815 FILLER_24_83
*816 FILLER_24_85
*817 FILLER_25_108
*818 FILLER_25_117
*819 FILLER_25_125
*820 FILLER_25_15
*821 FILLER_25_154
*822 FILLER_25_163
*823 FILLER_25_167
*824 FILLER_25_169
*825 FILLER_25_181
*826 FILLER_25_193
*827 FILLER_25_205
*828 FILLER_25_222
*829 FILLER_25_225
*830 FILLER_25_237
*831 FILLER_25_249
*832 FILLER_25_261
*833 FILLER_25_27
*834 FILLER_25_273
*835 FILLER_25_279
*836 FILLER_25_281
*837 FILLER_25_293
*838 FILLER_25_3
*839 FILLER_25_39
*840 FILLER_25_51
*841 FILLER_25_55
*842 FILLER_25_57
*843 FILLER_25_69
*844 FILLER_25_81
*845 FILLER_25_87
*846 FILLER_25_99
*847 FILLER_26_112
*848 FILLER_26_120
*849 FILLER_26_126
*850 FILLER_26_132
*851 FILLER_26_141
*852 FILLER_26_15
*853 FILLER_26_172
*854 FILLER_26_185
*855 FILLER_26_190
*856 FILLER_26_197
*857 FILLER_26_207
*858 FILLER_26_239
*859 FILLER_26_251
*860 FILLER_26_253
*861 FILLER_26_265
*862 FILLER_26_27
*863 FILLER_26_277
*864 FILLER_26_289
*865 FILLER_26_29
*866 FILLER_26_3
*867 FILLER_26_41
*868 FILLER_26_53
*869 FILLER_26_65
*870 FILLER_26_77
*871 FILLER_26_83
*872 FILLER_26_85
*873 FILLER_27_113
*874 FILLER_27_125
*875 FILLER_27_131
*876 FILLER_27_15
*877 FILLER_27_159
*878 FILLER_27_167
*879 FILLER_27_177
*880 FILLER_27_183
*881 FILLER_27_221
*882 FILLER_27_233
*883 FILLER_27_245
*884 FILLER_27_257
*885 FILLER_27_269
*886 FILLER_27_27
*887 FILLER_27_277
*888 FILLER_27_281
*889 FILLER_27_293
*890 FILLER_27_3
*891 FILLER_27_39
*892 FILLER_27_51
*893 FILLER_27_55
*894 FILLER_27_57
*895 FILLER_27_69
*896 FILLER_27_81
*897 FILLER_28_11
*898 FILLER_28_125
*899 FILLER_28_137
*900 FILLER_28_141
*901 FILLER_28_173
*902 FILLER_28_185
*903 FILLER_28_193
*904 FILLER_28_197
*905 FILLER_28_229
*906 FILLER_28_23
*907 FILLER_28_241
*908 FILLER_28_249
*909 FILLER_28_253
*910 FILLER_28_265
*911 FILLER_28_27
*912 FILLER_28_277
*913 FILLER_28_289
*914 FILLER_28_29
*915 FILLER_28_297
*916 FILLER_28_41
*917 FILLER_28_53
*918 FILLER_28_65
*919 FILLER_28_77
*920 FILLER_29_111
*921 FILLER_29_117
*922 FILLER_29_140
*923 FILLER_29_15
*924 FILLER_29_152
*925 FILLER_29_164
*926 FILLER_29_169
*927 FILLER_29_181
*928 FILLER_29_191
*929 FILLER_29_199
*930 FILLER_29_213
*931 FILLER_29_223
*932 FILLER_29_236
*933 FILLER_29_248
*934 FILLER_29_260
*935 FILLER_29_27
*936 FILLER_29_272
*937 FILLER_29_281
*938 FILLER_29_293
*939 FILLER_29_3
*940 FILLER_29_39
*941 FILLER_29_51
*942 FILLER_29_55
*943 FILLER_29_57
*944 FILLER_29_69
*945 FILLER_29_81
*946 FILLER_2_109
*947 FILLER_2_121
*948 FILLER_2_133
*949 FILLER_2_139
*950 FILLER_2_141
*951 FILLER_2_15
*952 FILLER_2_153
*953 FILLER_2_165
*954 FILLER_2_177
*955 FILLER_2_189
*956 FILLER_2_195
*957 FILLER_2_197
*958 FILLER_2_209
*959 FILLER_2_221
*960 FILLER_2_233
*961 FILLER_2_245
*962 FILLER_2_251
*963 FILLER_2_253
*964 FILLER_2_265
*965 FILLER_2_27
*966 FILLER_2_277
*967 FILLER_2_289
*968 FILLER_2_29
*969 FILLER_2_297
*970 FILLER_2_3
*971 FILLER_2_41
*972 FILLER_2_53
*973 FILLER_2_65
*974 FILLER_2_77
*975 FILLER_2_83
*976 FILLER_2_85
*977 FILLER_2_97
*978 FILLER_30_113
*979 FILLER_30_119
*980 FILLER_30_132
*981 FILLER_30_141
*982 FILLER_30_15
*983 FILLER_30_153
*984 FILLER_30_165
*985 FILLER_30_174
*986 FILLER_30_181
*987 FILLER_30_237
*988 FILLER_30_249
*989 FILLER_30_253
*990 FILLER_30_265
*991 FILLER_30_27
*992 FILLER_30_277
*993 FILLER_30_289
*994 FILLER_30_29
*995 FILLER_30_3
*996 FILLER_30_41
*997 FILLER_30_53
*998 FILLER_30_65
*999 FILLER_30_77
*1000 FILLER_30_83
*1001 FILLER_30_85
*1002 FILLER_30_97
*1003 FILLER_31_108
*1004 FILLER_31_113
*1005 FILLER_31_119
*1006 FILLER_31_152
*1007 FILLER_31_164
*1008 FILLER_31_169
*1009 FILLER_31_19
*1010 FILLER_31_191
*1011 FILLER_31_197
*1012 FILLER_31_206
*1013 FILLER_31_210
*1014 FILLER_31_219
*1015 FILLER_31_223
*1016 FILLER_31_225
*1017 FILLER_31_237
*1018 FILLER_31_249
*1019 FILLER_31_261
*1020 FILLER_31_273
*1021 FILLER_31_279
*1022 FILLER_31_281
*1023 FILLER_31_293
*1024 FILLER_31_31
*1025 FILLER_31_43
*1026 FILLER_31_55
*1027 FILLER_31_57
*1028 FILLER_31_69
*1029 FILLER_31_7
*1030 FILLER_31_81
*1031 FILLER_31_87
*1032 FILLER_32_108
*1033 FILLER_32_149
*1034 FILLER_32_15
*1035 FILLER_32_161
*1036 FILLER_32_167
*1037 FILLER_32_179
*1038 FILLER_32_191
*1039 FILLER_32_195
*1040 FILLER_32_197
*1041 FILLER_32_209
*1042 FILLER_32_215
*1043 FILLER_32_224
*1044 FILLER_32_236
*1045 FILLER_32_248
*1046 FILLER_32_253
*1047 FILLER_32_265
*1048 FILLER_32_27
*1049 FILLER_32_277
*1050 FILLER_32_289
*1051 FILLER_32_29
*1052 FILLER_32_297
*1053 FILLER_32_3
*1054 FILLER_32_41
*1055 FILLER_32_53
*1056 FILLER_32_65
*1057 FILLER_32_77
*1058 FILLER_32_83
*1059 FILLER_32_85
*1060 FILLER_32_91
*1061 FILLER_33_101
*1062 FILLER_33_109
*1063 FILLER_33_113
*1064 FILLER_33_125
*1065 FILLER_33_133
*1066 FILLER_33_142
*1067 FILLER_33_146
*1068 FILLER_33_15
*1069 FILLER_33_169
*1070 FILLER_33_178
*1071 FILLER_33_190
*1072 FILLER_33_196
*1073 FILLER_33_200
*1074 FILLER_33_205
*1075 FILLER_33_209
*1076 FILLER_33_221
*1077 FILLER_33_225
*1078 FILLER_33_237
*1079 FILLER_33_249
*1080 FILLER_33_261
*1081 FILLER_33_27
*1082 FILLER_33_273
*1083 FILLER_33_279
*1084 FILLER_33_281
*1085 FILLER_33_293
*1086 FILLER_33_3
*1087 FILLER_33_39
*1088 FILLER_33_51
*1089 FILLER_33_55
*1090 FILLER_33_57
*1091 FILLER_33_69
*1092 FILLER_33_81
*1093 FILLER_33_93
*1094 FILLER_33_97
*1095 FILLER_34_121
*1096 FILLER_34_134
*1097 FILLER_34_139
*1098 FILLER_34_141
*1099 FILLER_34_15
*1100 FILLER_34_153
*1101 FILLER_34_233
*1102 FILLER_34_245
*1103 FILLER_34_251
*1104 FILLER_34_253
*1105 FILLER_34_265
*1106 FILLER_34_27
*1107 FILLER_34_277
*1108 FILLER_34_289
*1109 FILLER_34_29
*1110 FILLER_34_3
*1111 FILLER_34_41
*1112 FILLER_34_53
*1113 FILLER_34_65
*1114 FILLER_34_77
*1115 FILLER_34_83
*1116 FILLER_34_85
*1117 FILLER_34_97
*1118 FILLER_35_133
*1119 FILLER_35_143
*1120 FILLER_35_15
*1121 FILLER_35_155
*1122 FILLER_35_167
*1123 FILLER_35_169
*1124 FILLER_35_192
*1125 FILLER_35_222
*1126 FILLER_35_225
*1127 FILLER_35_237
*1128 FILLER_35_249
*1129 FILLER_35_261
*1130 FILLER_35_27
*1131 FILLER_35_273
*1132 FILLER_35_279
*1133 FILLER_35_281
*1134 FILLER_35_293
*1135 FILLER_35_3
*1136 FILLER_35_39
*1137 FILLER_35_51
*1138 FILLER_35_55
*1139 FILLER_35_57
*1140 FILLER_35_69
*1141 FILLER_35_81
*1142 FILLER_35_93
*1143 FILLER_36_110
*1144 FILLER_36_149
*1145 FILLER_36_15
*1146 FILLER_36_153
*1147 FILLER_36_158
*1148 FILLER_36_170
*1149 FILLER_36_194
*1150 FILLER_36_213
*1151 FILLER_36_217
*1152 FILLER_36_234
*1153 FILLER_36_246
*1154 FILLER_36_253
*1155 FILLER_36_265
*1156 FILLER_36_27
*1157 FILLER_36_277
*1158 FILLER_36_289
*1159 FILLER_36_29
*1160 FILLER_36_297
*1161 FILLER_36_3
*1162 FILLER_36_41
*1163 FILLER_36_53
*1164 FILLER_36_65
*1165 FILLER_36_77
*1166 FILLER_36_83
*1167 FILLER_36_85
*1168 FILLER_36_97
*1169 FILLER_37_111
*1170 FILLER_37_116
*1171 FILLER_37_122
*1172 FILLER_37_135
*1173 FILLER_37_147
*1174 FILLER_37_15
*1175 FILLER_37_151
*1176 FILLER_37_160
*1177 FILLER_37_169
*1178 FILLER_37_184
*1179 FILLER_37_195
*1180 FILLER_37_207
*1181 FILLER_37_217
*1182 FILLER_37_223
*1183 FILLER_37_225
*1184 FILLER_37_237
*1185 FILLER_37_249
*1186 FILLER_37_261
*1187 FILLER_37_27
*1188 FILLER_37_273
*1189 FILLER_37_279
*1190 FILLER_37_281
*1191 FILLER_37_293
*1192 FILLER_37_3
*1193 FILLER_37_39
*1194 FILLER_37_51
*1195 FILLER_37_55
*1196 FILLER_37_57
*1197 FILLER_37_69
*1198 FILLER_37_81
*1199 FILLER_37_89
*1200 FILLER_38_113
*1201 FILLER_38_119
*1202 FILLER_38_141
*1203 FILLER_38_145
*1204 FILLER_38_15
*1205 FILLER_38_166
*1206 FILLER_38_190
*1207 FILLER_38_197
*1208 FILLER_38_209
*1209 FILLER_38_221
*1210 FILLER_38_233
*1211 FILLER_38_245
*1212 FILLER_38_251
*1213 FILLER_38_253
*1214 FILLER_38_265
*1215 FILLER_38_27
*1216 FILLER_38_277
*1217 FILLER_38_289
*1218 FILLER_38_29
*1219 FILLER_38_297
*1220 FILLER_38_3
*1221 FILLER_38_41
*1222 FILLER_38_53
*1223 FILLER_38_65
*1224 FILLER_38_77
*1225 FILLER_38_83
*1226 FILLER_38_85
*1227 FILLER_39_104
*1228 FILLER_39_113
*1229 FILLER_39_125
*1230 FILLER_39_144
*1231 FILLER_39_15
*1232 FILLER_39_169
*1233 FILLER_39_196
*1234 FILLER_39_208
*1235 FILLER_39_220
*1236 FILLER_39_225
*1237 FILLER_39_237
*1238 FILLER_39_249
*1239 FILLER_39_261
*1240 FILLER_39_27
*1241 FILLER_39_273
*1242 FILLER_39_279
*1243 FILLER_39_281
*1244 FILLER_39_293
*1245 FILLER_39_3
*1246 FILLER_39_39
*1247 FILLER_39_51
*1248 FILLER_39_55
*1249 FILLER_39_57
*1250 FILLER_39_69
*1251 FILLER_39_81
*1252 FILLER_39_93
*1253 FILLER_3_105
*1254 FILLER_3_111
*1255 FILLER_3_113
*1256 FILLER_3_125
*1257 FILLER_3_137
*1258 FILLER_3_149
*1259 FILLER_3_15
*1260 FILLER_3_161
*1261 FILLER_3_167
*1262 FILLER_3_169
*1263 FILLER_3_181
*1264 FILLER_3_193
*1265 FILLER_3_205
*1266 FILLER_3_217
*1267 FILLER_3_223
*1268 FILLER_3_225
*1269 FILLER_3_237
*1270 FILLER_3_249
*1271 FILLER_3_261
*1272 FILLER_3_27
*1273 FILLER_3_273
*1274 FILLER_3_279
*1275 FILLER_3_281
*1276 FILLER_3_293
*1277 FILLER_3_3
*1278 FILLER_3_39
*1279 FILLER_3_51
*1280 FILLER_3_55
*1281 FILLER_3_57
*1282 FILLER_3_69
*1283 FILLER_3_81
*1284 FILLER_3_93
*1285 FILLER_40_109
*1286 FILLER_40_121
*1287 FILLER_40_129
*1288 FILLER_40_134
*1289 FILLER_40_141
*1290 FILLER_40_15
*1291 FILLER_40_153
*1292 FILLER_40_159
*1293 FILLER_40_171
*1294 FILLER_40_183
*1295 FILLER_40_195
*1296 FILLER_40_197
*1297 FILLER_40_209
*1298 FILLER_40_221
*1299 FILLER_40_233
*1300 FILLER_40_245
*1301 FILLER_40_251
*1302 FILLER_40_253
*1303 FILLER_40_265
*1304 FILLER_40_27
*1305 FILLER_40_277
*1306 FILLER_40_289
*1307 FILLER_40_29
*1308 FILLER_40_297
*1309 FILLER_40_3
*1310 FILLER_40_41
*1311 FILLER_40_53
*1312 FILLER_40_65
*1313 FILLER_40_77
*1314 FILLER_40_83
*1315 FILLER_40_85
*1316 FILLER_40_97
*1317 FILLER_41_105
*1318 FILLER_41_111
*1319 FILLER_41_113
*1320 FILLER_41_125
*1321 FILLER_41_137
*1322 FILLER_41_149
*1323 FILLER_41_15
*1324 FILLER_41_161
*1325 FILLER_41_167
*1326 FILLER_41_169
*1327 FILLER_41_181
*1328 FILLER_41_193
*1329 FILLER_41_205
*1330 FILLER_41_217
*1331 FILLER_41_223
*1332 FILLER_41_225
*1333 FILLER_41_237
*1334 FILLER_41_249
*1335 FILLER_41_261
*1336 FILLER_41_27
*1337 FILLER_41_273
*1338 FILLER_41_279
*1339 FILLER_41_281
*1340 FILLER_41_293
*1341 FILLER_41_3
*1342 FILLER_41_39
*1343 FILLER_41_51
*1344 FILLER_41_55
*1345 FILLER_41_57
*1346 FILLER_41_69
*1347 FILLER_41_81
*1348 FILLER_41_93
*1349 FILLER_42_109
*1350 FILLER_42_121
*1351 FILLER_42_133
*1352 FILLER_42_139
*1353 FILLER_42_141
*1354 FILLER_42_15
*1355 FILLER_42_153
*1356 FILLER_42_165
*1357 FILLER_42_177
*1358 FILLER_42_189
*1359 FILLER_42_195
*1360 FILLER_42_197
*1361 FILLER_42_209
*1362 FILLER_42_221
*1363 FILLER_42_233
*1364 FILLER_42_245
*1365 FILLER_42_251
*1366 FILLER_42_253
*1367 FILLER_42_265
*1368 FILLER_42_27
*1369 FILLER_42_277
*1370 FILLER_42_289
*1371 FILLER_42_29
*1372 FILLER_42_297
*1373 FILLER_42_3
*1374 FILLER_42_41
*1375 FILLER_42_53
*1376 FILLER_42_65
*1377 FILLER_42_77
*1378 FILLER_42_83
*1379 FILLER_42_85
*1380 FILLER_42_97
*1381 FILLER_43_105
*1382 FILLER_43_111
*1383 FILLER_43_113
*1384 FILLER_43_125
*1385 FILLER_43_137
*1386 FILLER_43_149
*1387 FILLER_43_15
*1388 FILLER_43_161
*1389 FILLER_43_167
*1390 FILLER_43_169
*1391 FILLER_43_181
*1392 FILLER_43_193
*1393 FILLER_43_205
*1394 FILLER_43_217
*1395 FILLER_43_223
*1396 FILLER_43_225
*1397 FILLER_43_237
*1398 FILLER_43_249
*1399 FILLER_43_261
*1400 FILLER_43_27
*1401 FILLER_43_273
*1402 FILLER_43_279
*1403 FILLER_43_281
*1404 FILLER_43_293
*1405 FILLER_43_3
*1406 FILLER_43_39
*1407 FILLER_43_51
*1408 FILLER_43_55
*1409 FILLER_43_57
*1410 FILLER_43_69
*1411 FILLER_43_81
*1412 FILLER_43_93
*1413 FILLER_44_109
*1414 FILLER_44_121
*1415 FILLER_44_133
*1416 FILLER_44_139
*1417 FILLER_44_141
*1418 FILLER_44_15
*1419 FILLER_44_153
*1420 FILLER_44_165
*1421 FILLER_44_177
*1422 FILLER_44_189
*1423 FILLER_44_195
*1424 FILLER_44_197
*1425 FILLER_44_209
*1426 FILLER_44_221
*1427 FILLER_44_233
*1428 FILLER_44_245
*1429 FILLER_44_251
*1430 FILLER_44_253
*1431 FILLER_44_265
*1432 FILLER_44_27
*1433 FILLER_44_277
*1434 FILLER_44_289
*1435 FILLER_44_29
*1436 FILLER_44_297
*1437 FILLER_44_3
*1438 FILLER_44_41
*1439 FILLER_44_53
*1440 FILLER_44_65
*1441 FILLER_44_77
*1442 FILLER_44_83
*1443 FILLER_44_85
*1444 FILLER_44_97
*1445 FILLER_45_105
*1446 FILLER_45_111
*1447 FILLER_45_113
*1448 FILLER_45_125
*1449 FILLER_45_137
*1450 FILLER_45_149
*1451 FILLER_45_15
*1452 FILLER_45_161
*1453 FILLER_45_167
*1454 FILLER_45_169
*1455 FILLER_45_181
*1456 FILLER_45_189
*1457 FILLER_45_195
*1458 FILLER_45_207
*1459 FILLER_45_219
*1460 FILLER_45_223
*1461 FILLER_45_225
*1462 FILLER_45_237
*1463 FILLER_45_249
*1464 FILLER_45_261
*1465 FILLER_45_27
*1466 FILLER_45_273
*1467 FILLER_45_279
*1468 FILLER_45_281
*1469 FILLER_45_293
*1470 FILLER_45_3
*1471 FILLER_45_39
*1472 FILLER_45_51
*1473 FILLER_45_55
*1474 FILLER_45_57
*1475 FILLER_45_69
*1476 FILLER_45_81
*1477 FILLER_45_93
*1478 FILLER_46_105
*1479 FILLER_46_111
*1480 FILLER_46_113
*1481 FILLER_46_125
*1482 FILLER_46_141
*1483 FILLER_46_15
*1484 FILLER_46_153
*1485 FILLER_46_167
*1486 FILLER_46_169
*1487 FILLER_46_181
*1488 FILLER_46_193
*1489 FILLER_46_197
*1490 FILLER_46_209
*1491 FILLER_46_223
*1492 FILLER_46_225
*1493 FILLER_46_237
*1494 FILLER_46_249
*1495 FILLER_46_253
*1496 FILLER_46_265
*1497 FILLER_46_27
*1498 FILLER_46_277
*1499 FILLER_46_281
*1500 FILLER_46_29
*1501 FILLER_46_293
*1502 FILLER_46_3
*1503 FILLER_46_41
*1504 FILLER_46_53
*1505 FILLER_46_57
*1506 FILLER_46_69
*1507 FILLER_46_81
*1508 FILLER_46_85
*1509 FILLER_46_97
*1510 FILLER_4_109
*1511 FILLER_4_121
*1512 FILLER_4_133
*1513 FILLER_4_139
*1514 FILLER_4_141
*1515 FILLER_4_15
*1516 FILLER_4_153
*1517 FILLER_4_165
*1518 FILLER_4_177
*1519 FILLER_4_189
*1520 FILLER_4_195
*1521 FILLER_4_197
*1522 FILLER_4_209
*1523 FILLER_4_221
*1524 FILLER_4_233
*1525 FILLER_4_245
*1526 FILLER_4_251
*1527 FILLER_4_253
*1528 FILLER_4_265
*1529 FILLER_4_27
*1530 FILLER_4_277
*1531 FILLER_4_289
*1532 FILLER_4_29
*1533 FILLER_4_297
*1534 FILLER_4_3
*1535 FILLER_4_41
*1536 FILLER_4_53
*1537 FILLER_4_65
*1538 FILLER_4_77
*1539 FILLER_4_83
*1540 FILLER_4_85
*1541 FILLER_4_97
*1542 FILLER_5_105
*1543 FILLER_5_111
*1544 FILLER_5_113
*1545 FILLER_5_125
*1546 FILLER_5_137
*1547 FILLER_5_149
*1548 FILLER_5_15
*1549 FILLER_5_161
*1550 FILLER_5_167
*1551 FILLER_5_169
*1552 FILLER_5_181
*1553 FILLER_5_193
*1554 FILLER_5_205
*1555 FILLER_5_217
*1556 FILLER_5_223
*1557 FILLER_5_225
*1558 FILLER_5_237
*1559 FILLER_5_249
*1560 FILLER_5_261
*1561 FILLER_5_27
*1562 FILLER_5_273
*1563 FILLER_5_279
*1564 FILLER_5_281
*1565 FILLER_5_293
*1566 FILLER_5_3
*1567 FILLER_5_39
*1568 FILLER_5_51
*1569 FILLER_5_55
*1570 FILLER_5_57
*1571 FILLER_5_69
*1572 FILLER_5_81
*1573 FILLER_5_93
*1574 FILLER_6_109
*1575 FILLER_6_121
*1576 FILLER_6_133
*1577 FILLER_6_139
*1578 FILLER_6_141
*1579 FILLER_6_15
*1580 FILLER_6_153
*1581 FILLER_6_165
*1582 FILLER_6_177
*1583 FILLER_6_189
*1584 FILLER_6_195
*1585 FILLER_6_197
*1586 FILLER_6_209
*1587 FILLER_6_221
*1588 FILLER_6_233
*1589 FILLER_6_245
*1590 FILLER_6_251
*1591 FILLER_6_253
*1592 FILLER_6_265
*1593 FILLER_6_27
*1594 FILLER_6_277
*1595 FILLER_6_289
*1596 FILLER_6_29
*1597 FILLER_6_297
*1598 FILLER_6_3
*1599 FILLER_6_41
*1600 FILLER_6_53
*1601 FILLER_6_65
*1602 FILLER_6_77
*1603 FILLER_6_83
*1604 FILLER_6_85
*1605 FILLER_6_97
*1606 FILLER_7_105
*1607 FILLER_7_111
*1608 FILLER_7_113
*1609 FILLER_7_125
*1610 FILLER_7_137
*1611 FILLER_7_149
*1612 FILLER_7_15
*1613 FILLER_7_161
*1614 FILLER_7_167
*1615 FILLER_7_169
*1616 FILLER_7_185
*1617 FILLER_7_197
*1618 FILLER_7_209
*1619 FILLER_7_221
*1620 FILLER_7_225
*1621 FILLER_7_237
*1622 FILLER_7_249
*1623 FILLER_7_261
*1624 FILLER_7_27
*1625 FILLER_7_273
*1626 FILLER_7_279
*1627 FILLER_7_281
*1628 FILLER_7_293
*1629 FILLER_7_3
*1630 FILLER_7_39
*1631 FILLER_7_51
*1632 FILLER_7_55
*1633 FILLER_7_57
*1634 FILLER_7_69
*1635 FILLER_7_81
*1636 FILLER_7_93
*1637 FILLER_8_109
*1638 FILLER_8_121
*1639 FILLER_8_133
*1640 FILLER_8_139
*1641 FILLER_8_141
*1642 FILLER_8_15
*1643 FILLER_8_153
*1644 FILLER_8_165
*1645 FILLER_8_177
*1646 FILLER_8_188
*1647 FILLER_8_197
*1648 FILLER_8_209
*1649 FILLER_8_221
*1650 FILLER_8_233
*1651 FILLER_8_245
*1652 FILLER_8_251
*1653 FILLER_8_253
*1654 FILLER_8_265
*1655 FILLER_8_27
*1656 FILLER_8_277
*1657 FILLER_8_289
*1658 FILLER_8_29
*1659 FILLER_8_297
*1660 FILLER_8_3
*1661 FILLER_8_41
*1662 FILLER_8_53
*1663 FILLER_8_65
*1664 FILLER_8_77
*1665 FILLER_8_83
*1666 FILLER_8_85
*1667 FILLER_8_97
*1668 FILLER_9_105
*1669 FILLER_9_111
*1670 FILLER_9_113
*1671 FILLER_9_125
*1672 FILLER_9_137
*1673 FILLER_9_149
*1674 FILLER_9_15
*1675 FILLER_9_157
*1676 FILLER_9_169
*1677 FILLER_9_197
*1678 FILLER_9_209
*1679 FILLER_9_221
*1680 FILLER_9_225
*1681 FILLER_9_237
*1682 FILLER_9_249
*1683 FILLER_9_261
*1684 FILLER_9_27
*1685 FILLER_9_273
*1686 FILLER_9_279
*1687 FILLER_9_281
*1688 FILLER_9_293
*1689 FILLER_9_3
*1690 FILLER_9_39
*1691 FILLER_9_51
*1692 FILLER_9_55
*1693 FILLER_9_57
*1694 FILLER_9_69
*1695 FILLER_9_81
*1696 FILLER_9_93
*1697 PHY_EDGE_ROW_0_Left_47
*1698 PHY_EDGE_ROW_0_Right_0
*1699 PHY_EDGE_ROW_10_Left_57
*1700 PHY_EDGE_ROW_10_Right_10
*1701 PHY_EDGE_ROW_11_Left_58
*1702 PHY_EDGE_ROW_11_Right_11
*1703 PHY_EDGE_ROW_12_Left_59
*1704 PHY_EDGE_ROW_12_Right_12
*1705 PHY_EDGE_ROW_13_Left_60
*1706 PHY_EDGE_ROW_13_Right_13
*1707 PHY_EDGE_ROW_14_Left_61
*1708 PHY_EDGE_ROW_14_Right_14
*1709 PHY_EDGE_ROW_15_Left_62
*1710 PHY_EDGE_ROW_15_Right_15
*1711 PHY_EDGE_ROW_16_Left_63
*1712 PHY_EDGE_ROW_16_Right_16
*1713 PHY_EDGE_ROW_17_Left_64
*1714 PHY_EDGE_ROW_17_Right_17
*1715 PHY_EDGE_ROW_18_Left_65
*1716 PHY_EDGE_ROW_18_Right_18
*1717 PHY_EDGE_ROW_19_Left_66
*1718 PHY_EDGE_ROW_19_Right_19
*1719 PHY_EDGE_ROW_1_Left_48
*1720 PHY_EDGE_ROW_1_Right_1
*1721 PHY_EDGE_ROW_20_Left_67
*1722 PHY_EDGE_ROW_20_Right_20
*1723 PHY_EDGE_ROW_21_Left_68
*1724 PHY_EDGE_ROW_21_Right_21
*1725 PHY_EDGE_ROW_22_Left_69
*1726 PHY_EDGE_ROW_22_Right_22
*1727 PHY_EDGE_ROW_23_Left_70
*1728 PHY_EDGE_ROW_23_Right_23
*1729 PHY_EDGE_ROW_24_Left_71
*1730 PHY_EDGE_ROW_24_Right_24
*1731 PHY_EDGE_ROW_25_Left_72
*1732 PHY_EDGE_ROW_25_Right_25
*1733 PHY_EDGE_ROW_26_Left_73
*1734 PHY_EDGE_ROW_26_Right_26
*1735 PHY_EDGE_ROW_27_Left_74
*1736 PHY_EDGE_ROW_27_Right_27
*1737 PHY_EDGE_ROW_28_Left_75
*1738 PHY_EDGE_ROW_28_Right_28
*1739 PHY_EDGE_ROW_29_Left_76
*1740 PHY_EDGE_ROW_29_Right_29
*1741 PHY_EDGE_ROW_2_Left_49
*1742 PHY_EDGE_ROW_2_Right_2
*1743 PHY_EDGE_ROW_30_Left_77
*1744 PHY_EDGE_ROW_30_Right_30
*1745 PHY_EDGE_ROW_31_Left_78
*1746 PHY_EDGE_ROW_31_Right_31
*1747 PHY_EDGE_ROW_32_Left_79
*1748 PHY_EDGE_ROW_32_Right_32
*1749 PHY_EDGE_ROW_33_Left_80
*1750 PHY_EDGE_ROW_33_Right_33
*1751 PHY_EDGE_ROW_34_Left_81
*1752 PHY_EDGE_ROW_34_Right_34
*1753 PHY_EDGE_ROW_35_Left_82
*1754 PHY_EDGE_ROW_35_Right_35
*1755 PHY_EDGE_ROW_36_Left_83
*1756 PHY_EDGE_ROW_36_Right_36
*1757 PHY_EDGE_ROW_37_Left_84
*1758 PHY_EDGE_ROW_37_Right_37
*1759 PHY_EDGE_ROW_38_Left_85
*1760 PHY_EDGE_ROW_38_Right_38
*1761 PHY_EDGE_ROW_39_Left_86
*1762 PHY_EDGE_ROW_39_Right_39
*1763 PHY_EDGE_ROW_3_Left_50
*1764 PHY_EDGE_ROW_3_Right_3
*1765 PHY_EDGE_ROW_40_Left_87
*1766 PHY_EDGE_ROW_40_Right_40
*1767 PHY_EDGE_ROW_41_Left_88
*1768 PHY_EDGE_ROW_41_Right_41
*1769 PHY_EDGE_ROW_42_Left_89
*1770 PHY_EDGE_ROW_42_Right_42
*1771 PHY_EDGE_ROW_43_Left_90
*1772 PHY_EDGE_ROW_43_Right_43
*1773 PHY_EDGE_ROW_44_Left_91
*1774 PHY_EDGE_ROW_44_Right_44
*1775 PHY_EDGE_ROW_45_Left_92
*1776 PHY_EDGE_ROW_45_Right_45
*1777 PHY_EDGE_ROW_46_Left_93
*1778 PHY_EDGE_ROW_46_Right_46
*1779 PHY_EDGE_ROW_4_Left_51
*1780 PHY_EDGE_ROW_4_Right_4
*1781 PHY_EDGE_ROW_5_Left_52
*1782 PHY_EDGE_ROW_5_Right_5
*1783 PHY_EDGE_ROW_6_Left_53
*1784 PHY_EDGE_ROW_6_Right_6
*1785 PHY_EDGE_ROW_7_Left_54
*1786 PHY_EDGE_ROW_7_Right_7
*1787 PHY_EDGE_ROW_8_Left_55
*1788 PHY_EDGE_ROW_8_Right_8
*1789 PHY_EDGE_ROW_9_Left_56
*1790 PHY_EDGE_ROW_9_Right_9
*1791 TAP_TAPCELL_ROW_0_100
*1792 TAP_TAPCELL_ROW_0_101
*1793 TAP_TAPCELL_ROW_0_102
*1794 TAP_TAPCELL_ROW_0_103
*1795 TAP_TAPCELL_ROW_0_94
*1796 TAP_TAPCELL_ROW_0_95
*1797 TAP_TAPCELL_ROW_0_96
*1798 TAP_TAPCELL_ROW_0_97
*1799 TAP_TAPCELL_ROW_0_98
*1800 TAP_TAPCELL_ROW_0_99
*1801 TAP_TAPCELL_ROW_10_149
*1802 TAP_TAPCELL_ROW_10_150
*1803 TAP_TAPCELL_ROW_10_151
*1804 TAP_TAPCELL_ROW_10_152
*1805 TAP_TAPCELL_ROW_10_153
*1806 TAP_TAPCELL_ROW_11_154
*1807 TAP_TAPCELL_ROW_11_155
*1808 TAP_TAPCELL_ROW_11_156
*1809 TAP_TAPCELL_ROW_11_157
*1810 TAP_TAPCELL_ROW_11_158
*1811 TAP_TAPCELL_ROW_12_159
*1812 TAP_TAPCELL_ROW_12_160
*1813 TAP_TAPCELL_ROW_12_161
*1814 TAP_TAPCELL_ROW_12_162
*1815 TAP_TAPCELL_ROW_12_163
*1816 TAP_TAPCELL_ROW_13_164
*1817 TAP_TAPCELL_ROW_13_165
*1818 TAP_TAPCELL_ROW_13_166
*1819 TAP_TAPCELL_ROW_13_167
*1820 TAP_TAPCELL_ROW_13_168
*1821 TAP_TAPCELL_ROW_14_169
*1822 TAP_TAPCELL_ROW_14_170
*1823 TAP_TAPCELL_ROW_14_171
*1824 TAP_TAPCELL_ROW_14_172
*1825 TAP_TAPCELL_ROW_14_173
*1826 TAP_TAPCELL_ROW_15_174
*1827 TAP_TAPCELL_ROW_15_175
*1828 TAP_TAPCELL_ROW_15_176
*1829 TAP_TAPCELL_ROW_15_177
*1830 TAP_TAPCELL_ROW_15_178
*1831 TAP_TAPCELL_ROW_16_179
*1832 TAP_TAPCELL_ROW_16_180
*1833 TAP_TAPCELL_ROW_16_181
*1834 TAP_TAPCELL_ROW_16_182
*1835 TAP_TAPCELL_ROW_16_183
*1836 TAP_TAPCELL_ROW_17_184
*1837 TAP_TAPCELL_ROW_17_185
*1838 TAP_TAPCELL_ROW_17_186
*1839 TAP_TAPCELL_ROW_17_187
*1840 TAP_TAPCELL_ROW_17_188
*1841 TAP_TAPCELL_ROW_18_189
*1842 TAP_TAPCELL_ROW_18_190
*1843 TAP_TAPCELL_ROW_18_191
*1844 TAP_TAPCELL_ROW_18_192
*1845 TAP_TAPCELL_ROW_18_193
*1846 TAP_TAPCELL_ROW_19_194
*1847 TAP_TAPCELL_ROW_19_195
*1848 TAP_TAPCELL_ROW_19_196
*1849 TAP_TAPCELL_ROW_19_197
*1850 TAP_TAPCELL_ROW_19_198
*1851 TAP_TAPCELL_ROW_1_104
*1852 TAP_TAPCELL_ROW_1_105
*1853 TAP_TAPCELL_ROW_1_106
*1854 TAP_TAPCELL_ROW_1_107
*1855 TAP_TAPCELL_ROW_1_108
*1856 TAP_TAPCELL_ROW_20_199
*1857 TAP_TAPCELL_ROW_20_200
*1858 TAP_TAPCELL_ROW_20_201
*1859 TAP_TAPCELL_ROW_20_202
*1860 TAP_TAPCELL_ROW_20_203
*1861 TAP_TAPCELL_ROW_21_204
*1862 TAP_TAPCELL_ROW_21_205
*1863 TAP_TAPCELL_ROW_21_206
*1864 TAP_TAPCELL_ROW_21_207
*1865 TAP_TAPCELL_ROW_21_208
*1866 TAP_TAPCELL_ROW_22_209
*1867 TAP_TAPCELL_ROW_22_210
*1868 TAP_TAPCELL_ROW_22_211
*1869 TAP_TAPCELL_ROW_22_212
*1870 TAP_TAPCELL_ROW_22_213
*1871 TAP_TAPCELL_ROW_23_214
*1872 TAP_TAPCELL_ROW_23_215
*1873 TAP_TAPCELL_ROW_23_216
*1874 TAP_TAPCELL_ROW_23_217
*1875 TAP_TAPCELL_ROW_23_218
*1876 TAP_TAPCELL_ROW_24_219
*1877 TAP_TAPCELL_ROW_24_220
*1878 TAP_TAPCELL_ROW_24_221
*1879 TAP_TAPCELL_ROW_24_222
*1880 TAP_TAPCELL_ROW_24_223
*1881 TAP_TAPCELL_ROW_25_224
*1882 TAP_TAPCELL_ROW_25_225
*1883 TAP_TAPCELL_ROW_25_226
*1884 TAP_TAPCELL_ROW_25_227
*1885 TAP_TAPCELL_ROW_25_228
*1886 TAP_TAPCELL_ROW_26_229
*1887 TAP_TAPCELL_ROW_26_230
*1888 TAP_TAPCELL_ROW_26_231
*1889 TAP_TAPCELL_ROW_26_232
*1890 TAP_TAPCELL_ROW_26_233
*1891 TAP_TAPCELL_ROW_27_234
*1892 TAP_TAPCELL_ROW_27_235
*1893 TAP_TAPCELL_ROW_27_236
*1894 TAP_TAPCELL_ROW_27_237
*1895 TAP_TAPCELL_ROW_27_238
*1896 TAP_TAPCELL_ROW_28_239
*1897 TAP_TAPCELL_ROW_28_240
*1898 TAP_TAPCELL_ROW_28_241
*1899 TAP_TAPCELL_ROW_28_242
*1900 TAP_TAPCELL_ROW_28_243
*1901 TAP_TAPCELL_ROW_29_244
*1902 TAP_TAPCELL_ROW_29_245
*1903 TAP_TAPCELL_ROW_29_246
*1904 TAP_TAPCELL_ROW_29_247
*1905 TAP_TAPCELL_ROW_29_248
*1906 TAP_TAPCELL_ROW_2_109
*1907 TAP_TAPCELL_ROW_2_110
*1908 TAP_TAPCELL_ROW_2_111
*1909 TAP_TAPCELL_ROW_2_112
*1910 TAP_TAPCELL_ROW_2_113
*1911 TAP_TAPCELL_ROW_30_249
*1912 TAP_TAPCELL_ROW_30_250
*1913 TAP_TAPCELL_ROW_30_251
*1914 TAP_TAPCELL_ROW_30_252
*1915 TAP_TAPCELL_ROW_30_253
*1916 TAP_TAPCELL_ROW_31_254
*1917 TAP_TAPCELL_ROW_31_255
*1918 TAP_TAPCELL_ROW_31_256
*1919 TAP_TAPCELL_ROW_31_257
*1920 TAP_TAPCELL_ROW_31_258
*1921 TAP_TAPCELL_ROW_32_259
*1922 TAP_TAPCELL_ROW_32_260
*1923 TAP_TAPCELL_ROW_32_261
*1924 TAP_TAPCELL_ROW_32_262
*1925 TAP_TAPCELL_ROW_32_263
*1926 TAP_TAPCELL_ROW_33_264
*1927 TAP_TAPCELL_ROW_33_265
*1928 TAP_TAPCELL_ROW_33_266
*1929 TAP_TAPCELL_ROW_33_267
*1930 TAP_TAPCELL_ROW_33_268
*1931 TAP_TAPCELL_ROW_34_269
*1932 TAP_TAPCELL_ROW_34_270
*1933 TAP_TAPCELL_ROW_34_271
*1934 TAP_TAPCELL_ROW_34_272
*1935 TAP_TAPCELL_ROW_34_273
*1936 TAP_TAPCELL_ROW_35_274
*1937 TAP_TAPCELL_ROW_35_275
*1938 TAP_TAPCELL_ROW_35_276
*1939 TAP_TAPCELL_ROW_35_277
*1940 TAP_TAPCELL_ROW_35_278
*1941 TAP_TAPCELL_ROW_36_279
*1942 TAP_TAPCELL_ROW_36_280
*1943 TAP_TAPCELL_ROW_36_281
*1944 TAP_TAPCELL_ROW_36_282
*1945 TAP_TAPCELL_ROW_36_283
*1946 TAP_TAPCELL_ROW_37_284
*1947 TAP_TAPCELL_ROW_37_285
*1948 TAP_TAPCELL_ROW_37_286
*1949 TAP_TAPCELL_ROW_37_287
*1950 TAP_TAPCELL_ROW_37_288
*1951 TAP_TAPCELL_ROW_38_289
*1952 TAP_TAPCELL_ROW_38_290
*1953 TAP_TAPCELL_ROW_38_291
*1954 TAP_TAPCELL_ROW_38_292
*1955 TAP_TAPCELL_ROW_38_293
*1956 TAP_TAPCELL_ROW_39_294
*1957 TAP_TAPCELL_ROW_39_295
*1958 TAP_TAPCELL_ROW_39_296
*1959 TAP_TAPCELL_ROW_39_297
*1960 TAP_TAPCELL_ROW_39_298
*1961 TAP_TAPCELL_ROW_3_114
*1962 TAP_TAPCELL_ROW_3_115
*1963 TAP_TAPCELL_ROW_3_116
*1964 TAP_TAPCELL_ROW_3_117
*1965 TAP_TAPCELL_ROW_3_118
*1966 TAP_TAPCELL_ROW_40_299
*1967 TAP_TAPCELL_ROW_40_300
*1968 TAP_TAPCELL_ROW_40_301
*1969 TAP_TAPCELL_ROW_40_302
*1970 TAP_TAPCELL_ROW_40_303
*1971 TAP_TAPCELL_ROW_41_304
*1972 TAP_TAPCELL_ROW_41_305
*1973 TAP_TAPCELL_ROW_41_306
*1974 TAP_TAPCELL_ROW_41_307
*1975 TAP_TAPCELL_ROW_41_308
*1976 TAP_TAPCELL_ROW_42_309
*1977 TAP_TAPCELL_ROW_42_310
*1978 TAP_TAPCELL_ROW_42_311
*1979 TAP_TAPCELL_ROW_42_312
*1980 TAP_TAPCELL_ROW_42_313
*1981 TAP_TAPCELL_ROW_43_314
*1982 TAP_TAPCELL_ROW_43_315
*1983 TAP_TAPCELL_ROW_43_316
*1984 TAP_TAPCELL_ROW_43_317
*1985 TAP_TAPCELL_ROW_43_318
*1986 TAP_TAPCELL_ROW_44_319
*1987 TAP_TAPCELL_ROW_44_320
*1988 TAP_TAPCELL_ROW_44_321
*1989 TAP_TAPCELL_ROW_44_322
*1990 TAP_TAPCELL_ROW_44_323
*1991 TAP_TAPCELL_ROW_45_324
*1992 TAP_TAPCELL_ROW_45_325
*1993 TAP_TAPCELL_ROW_45_326
*1994 TAP_TAPCELL_ROW_45_327
*1995 TAP_TAPCELL_ROW_45_328
*1996 TAP_TAPCELL_ROW_46_329
*1997 TAP_TAPCELL_ROW_46_330
*1998 TAP_TAPCELL_ROW_46_331
*1999 TAP_TAPCELL_ROW_46_332
*2000 TAP_TAPCELL_ROW_46_333
*2001 TAP_TAPCELL_ROW_46_334
*2002 TAP_TAPCELL_ROW_46_335
*2003 TAP_TAPCELL_ROW_46_336
*2004 TAP_TAPCELL_ROW_46_337
*2005 TAP_TAPCELL_ROW_46_338
*2006 TAP_TAPCELL_ROW_4_119
*2007 TAP_TAPCELL_ROW_4_120
*2008 TAP_TAPCELL_ROW_4_121
*2009 TAP_TAPCELL_ROW_4_122
*2010 TAP_TAPCELL_ROW_4_123
*2011 TAP_TAPCELL_ROW_5_124
*2012 TAP_TAPCELL_ROW_5_125
*2013 TAP_TAPCELL_ROW_5_126
*2014 TAP_TAPCELL_ROW_5_127
*2015 TAP_TAPCELL_ROW_5_128
*2016 TAP_TAPCELL_ROW_6_129
*2017 TAP_TAPCELL_ROW_6_130
*2018 TAP_TAPCELL_ROW_6_131
*2019 TAP_TAPCELL_ROW_6_132
*2020 TAP_TAPCELL_ROW_6_133
*2021 TAP_TAPCELL_ROW_7_134
*2022 TAP_TAPCELL_ROW_7_135
*2023 TAP_TAPCELL_ROW_7_136
*2024 TAP_TAPCELL_ROW_7_137
*2025 TAP_TAPCELL_ROW_7_138
*2026 TAP_TAPCELL_ROW_8_139
*2027 TAP_TAPCELL_ROW_8_140
*2028 TAP_TAPCELL_ROW_8_141
*2029 TAP_TAPCELL_ROW_8_142
*2030 TAP_TAPCELL_ROW_8_143
*2031 TAP_TAPCELL_ROW_9_144
*2032 TAP_TAPCELL_ROW_9_145
*2033 TAP_TAPCELL_ROW_9_146
*2034 TAP_TAPCELL_ROW_9_147
*2035 TAP_TAPCELL_ROW_9_148
*2036 _124_
*2037 _125_
*2038 _126_
*2039 _127_
*2040 _128_
*2041 _129_
*2042 _130_
*2043 _131_
*2044 _132_
*2045 _133_
*2046 _134_
*2047 _135_
*2048 _136_
*2049 _137_
*2050 _138_
*2051 _139_
*2052 _140_
*2053 _141_
*2054 _142_
*2055 _143_
*2056 _144_
*2057 _145_
*2058 _146_
*2059 _147_
*2060 _148_
*2061 _149_
*2062 _150_
*2063 _151_
*2064 _152_
*2065 _153_
*2066 _154_
*2067 _155_
*2068 _156_
*2069 _157_
*2070 _158_
*2071 _159_
*2072 _160_
*2073 _161_
*2074 _162_
*2075 _163_
*2076 _164_
*2077 _165_
*2078 _166_
*2079 _167_
*2080 _168_
*2081 _169_
*2082 _170_
*2083 _171_
*2084 _172_
*2085 _173_
*2086 _174_
*2087 _175_
*2088 _176_
*2089 _177_
*2090 _178_
*2091 _179_
*2092 _180_
*2093 _181_
*2094 _182_
*2095 _183_
*2096 _184_
*2097 _185_
*2098 _186_
*2099 _187_
*2100 _188_
*2101 _189_
*2102 _190_
*2103 _191_
*2104 _192_
*2105 _193_
*2106 _194_
*2107 _195_
*2108 _196_
*2109 _197_
*2110 _198_
*2111 _199_
*2112 _200_
*2113 _201_
*2114 _202_
*2115 _203_
*2116 _204_
*2117 _205_
*2118 _206_
*2119 _207_
*2120 _208_
*2121 _209_
*2122 _210_
*2123 _211_
*2124 _212_
*2125 _213_
*2126 _214_
*2127 _215_
*2128 _216_
*2129 _217_
*2130 _218_
*2131 _219_
*2132 _220_
*2133 _221_
*2134 _222_
*2135 _223_
*2136 _224_
*2137 _225_
*2138 _226_
*2139 _227_
*2140 _228_
*2141 _229_
*2142 _230_
*2143 _231_
*2144 _232_
*2145 _233_
*2146 _234_
*2147 _235_
*2148 _236_
*2149 _237_
*2150 _238_
*2151 _239_
*2152 _240_
*2153 _241_
*2154 _242_
*2155 _243_
*2156 _244_
*2157 _245_
*2158 _246_
*2159 _247_
*2160 _248_
*2161 _249_
*2162 _250_
*2163 _251_
*2164 _252_
*2165 _253_
*2166 _254_
*2167 _255_
*2168 _256_
*2169 _257_
*2170 _258_
*2171 _259_
*2172 _260_
*2173 _261_
*2174 _262_
*2175 _263_
*2176 _264_
*2177 _265_
*2178 _266_
*2179 _267_
*2180 _268_
*2181 _269_
*2182 _270_
*2183 _271_
*2184 _272_
*2185 _273_
*2186 _274_
*2187 _275_
*2188 _276_
*2189 _277_
*2190 _278_
*2191 _279_
*2192 _280_
*2193 _281_
*2194 _282_
*2195 _283_
*2196 _284_
*2197 _285_
*2198 _286_
*2199 _287_
*2200 _288_
*2201 _289_
*2202 _290_
*2203 clkbuf_0_clk
*2204 clkbuf_0_clk_regs
*2205 clkbuf_1_0__f_clk
*2206 clkbuf_2_0__f_clk_regs
*2207 clkbuf_2_1__f_clk_regs
*2208 clkbuf_2_2__f_clk_regs
*2209 clkbuf_2_3__f_clk_regs
*2210 clkbuf_regs_0_clk
*2211 clkload0
*2212 clkload1
*2213 clkload2
*2214 hold100
*2215 hold101
*2216 hold102
*2217 hold103
*2218 hold104
*2219 hold105
*2220 hold106
*2221 hold107
*2222 hold108
*2223 hold109
*2224 hold110
*2225 hold111
*2226 hold112
*2227 hold113
*2228 hold114
*2229 hold115
*2230 hold116
*2231 hold117
*2232 hold118
*2233 hold119
*2234 hold120
*2235 hold121
*2236 hold122
*2237 hold123
*2238 hold124
*2239 hold125
*2240 hold126
*2241 hold127
*2242 hold128
*2243 hold129
*2244 hold130
*2245 hold131
*2246 hold132
*2247 hold133
*2248 hold134
*2249 hold135
*2250 hold136
*2251 hold137
*2252 hold138
*2253 hold139
*2254 hold140
*2255 hold141
*2256 hold142
*2257 hold143
*2258 hold144
*2259 hold145
*2260 hold146
*2261 hold147
*2262 hold148
*2263 hold149
*2264 hold150
*2265 hold151
*2266 hold152
*2267 hold153
*2268 hold154
*2269 hold155
*2270 hold156
*2271 hold157
*2272 hold158
*2273 hold159
*2274 hold160
*2275 hold161
*2276 hold162
*2277 hold45
*2278 hold46
*2279 hold47
*2280 hold48
*2281 hold49
*2282 hold50
*2283 hold51
*2284 hold52
*2285 hold53
*2286 hold54
*2287 hold55
*2288 hold56
*2289 hold57
*2290 hold58
*2291 hold59
*2292 hold60
*2293 hold61
*2294 hold62
*2295 hold63
*2296 hold64
*2297 hold65
*2298 hold66
*2299 hold67
*2300 hold68
*2301 hold69
*2302 hold70
*2303 hold71
*2304 hold72
*2305 hold73
*2306 hold74
*2307 hold75
*2308 hold76
*2309 hold77
*2310 hold78
*2311 hold79
*2312 hold80
*2313 hold81
*2314 hold82
*2315 hold83
*2316 hold84
*2317 hold85
*2318 hold86
*2319 hold87
*2320 hold88
*2321 hold89
*2322 hold90
*2323 hold91
*2324 hold92
*2325 hold93
*2326 hold94
*2327 hold95
*2328 hold96
*2329 hold97
*2330 hold98
*2331 hold99
*2332 input1
*2333 input2
*2334 input3
*2335 input4
*2336 input5
*2337 max_cap39
*2338 max_cap40
*2339 max_cap41
*2340 max_cap42
*2341 max_cap43
*2342 max_cap44
*2343 output10
*2344 output11
*2345 output12
*2346 output13
*2347 output14
*2348 output15
*2349 output16
*2350 output17
*2351 output18
*2352 output19
*2353 output20
*2354 output21
*2355 output22
*2356 output23
*2357 output24
*2358 output25
*2359 output26
*2360 output27
*2361 output28
*2362 output29
*2363 output30
*2364 output31
*2365 output32
*2366 output33
*2367 output34
*2368 output35
*2369 output36
*2370 output37
*2371 output38
*2372 output6
*2373 output7
*2374 output8
*2375 output9

*PORTS
busy O
clk I
comparator_bit I
comparator_evaluate O
data[0] O
data[10] O
data[11] O
data[1] O
data[2] O
data[3] O
data[4] O
data[5] O
data[6] O
data[7] O
data[8] O
data[9] O
data_gain[0] O
data_gain[1] O
data_valid O
gain_latched[0] O
gain_latched[1] O
gain_sel[0] I
gain_sel[1] I
ready O
rst_n I
sample_en O
start I
trial_code[0] O
trial_code[10] O
trial_code[11] O
trial_code[1] O
trial_code[2] O
trial_code[3] O
trial_code[4] O
trial_code[5] O
trial_code[6] O
trial_code[7] O
trial_code[8] O
trial_code[9] O

*D_NET *3 0.00097004
*CONN
*P busy O
*I *2372:X O *D sky130_fd_sc_hd__buf_2
*CAP
1 busy 0.000388048
2 *2372:X 0.000388048
3 busy ready 0.000193943
*RES
1 *2372:X busy 22.8412 
*END

*D_NET *4 0.0176621
*CONN
*P clk I
*I *2203:A I *D sky130_fd_sc_hd__clkbuf_16
*I *2210:A I *D sky130_fd_sc_hd__clkbuf_16
*CAP
1 clk 0.00651184
2 *2203:A 0
3 *2210:A 0
4 *4:34 0.000915596
5 *4:25 0.000989621
6 *4:18 0.000138364
7 *4:10 0.00657618
8 *4:10 *2077:A2 0.000298638
9 *4:10 *2120:B1 6.20472e-05
10 *4:10 *2121:A2 0
11 *4:10 *2134:B2 0.000101601
12 *4:10 *2149:A2 0.000181204
13 *4:10 *2248:A 0.000161946
14 *4:10 *140:43 0
15 *4:10 *175:11 0.0001203
16 *4:10 *175:47 0.000741077
17 *4:10 *270:14 0
18 *4:18 *2243:A 1.00733e-05
19 *4:18 *213:20 3.3426e-05
20 *4:25 *213:20 8.31151e-05
21 *4:34 *2051:A 0.000205966
22 *4:34 *2051:B 2.7814e-05
23 *4:34 *2055:A 0
24 *4:34 *2056:B 8.22006e-05
25 *4:34 *2198:RESET_B 0
26 *4:34 *2247:A 0
27 *4:34 *175:11 0.000389116
28 *4:34 *213:20 3.20038e-05
29 *4:34 *282:353 0
30 *4:34 *282:355 0
31 *4:34 *282:365 0
*RES
1 clk *4:10 46.9302 
2 *4:10 *4:18 5.84375 
3 *4:18 *2210:A 9.3 
4 *4:18 *4:25 1.63839 
5 *4:25 *4:34 24.2321 
6 *4:34 *2203:A 13.8 
*END

*D_NET *5 0.00149564
*CONN
*P comparator_bit I
*I *2332:A I *D sky130_fd_sc_hd__buf_2
*CAP
1 comparator_bit 0.000662487
2 *2332:A 0.000662487
3 *2332:A trial_code[2] 0
4 *2332:A *2345:A 9.36295e-05
5 *2332:A *2364:A 5.85455e-05
6 *2332:A *181:14 1.84865e-05
*RES
1 comparator_bit *2332:A 27.8357 
*END

*D_NET *6 0.00126528
*CONN
*P comparator_evaluate O
*I *2373:X O *D sky130_fd_sc_hd__buf_2
*CAP
1 comparator_evaluate 0.00063264
2 *2373:X 0.00063264
*RES
1 *2373:X comparator_evaluate 25.2643 
*END

*D_NET *7 0.000781821
*CONN
*P data[0] O
*I *2374:X O *D sky130_fd_sc_hd__buf_2
*CAP
1 data[0] 0.000286537
2 *2374:X 0.000286537
3 data[0] trial_code[0] 0.000208746
4 data[0] trial_code[7] 0
*RES
1 *2374:X data[0] 18.6587 
*END

*D_NET *8 0.00117197
*CONN
*P data[10] O
*I *2375:X O *D sky130_fd_sc_hd__buf_2
*CAP
1 data[10] 0.000432413
2 *2375:X 0.000432413
3 data[10] trial_code[10] 0.000307145
4 data[10] *332:10 0
*RES
1 *2375:X data[10] 22.7009 
*END

*D_NET *9 0.00120444
*CONN
*P data[11] O
*I *2343:X O *D sky130_fd_sc_hd__buf_2
*CAP
1 data[11] 0.000545407
2 *2343:X 0.000545407
3 data[11] trial_code[11] 0.000113626
*RES
1 *2343:X data[11] 20.1549 
*END

*D_NET *10 0.000904719
*CONN
*P data[1] O
*I *2344:X O *D sky130_fd_sc_hd__buf_2
*CAP
1 data[1] 0.00045236
2 *2344:X 0.00045236
*RES
1 *2344:X data[1] 19.8729 
*END

*D_NET *11 0.00136198
*CONN
*P data[2] O
*I *2345:X O *D sky130_fd_sc_hd__buf_2
*CAP
1 data[2] 0.00043657
2 *2345:X 0.00043657
3 data[2] trial_code[2] 0.000488835
*RES
1 *2345:X data[2] 25.5143 
*END

*D_NET *12 0.0012097
*CONN
*P data[3] O
*I *2346:X O *D sky130_fd_sc_hd__buf_2
*CAP
1 data[3] 0.000604849
2 *2346:X 0.000604849
3 data[3] trial_code[3] 0
*RES
1 *2346:X data[3] 25.5143 
*END

*D_NET *13 0.00089573
*CONN
*P data[4] O
*I *2347:X O *D sky130_fd_sc_hd__buf_2
*CAP
1 data[4] 0.000447865
2 *2347:X 0.000447865
3 data[4] trial_code[10] 0
*RES
1 *2347:X data[4] 19.8667 
*END

*D_NET *14 0.00111662
*CONN
*P data[5] O
*I *2348:X O *D sky130_fd_sc_hd__buf_2
*CAP
1 data[5] 0.000313783
2 *2348:X 0.000313783
3 data[5] trial_code[5] 0.00042862
4 data[5] *271:10 6.043e-05
*RES
1 *2348:X data[5] 19.8729 
*END

*D_NET *15 0.00110849
*CONN
*P data[6] O
*I *2349:X O *D sky130_fd_sc_hd__buf_2
*CAP
1 data[6] 0.000309334
2 *2349:X 0.000309334
3 data[6] trial_code[5] 0
4 data[6] trial_code[6] 0.000427076
5 data[6] *272:25 6.27457e-05
*RES
1 *2349:X data[6] 19.8729 
*END

*D_NET *16 0.000910177
*CONN
*P data[7] O
*I *2350:X O *D sky130_fd_sc_hd__buf_2
*CAP
1 data[7] 0.000344452
2 *2350:X 0.000344452
3 data[7] data_valid 0
4 data[7] trial_code[7] 0.000221274
*RES
1 *2350:X data[7] 19.8729 
*END

*D_NET *17 0.00145307
*CONN
*P data[8] O
*I *2351:X O *D sky130_fd_sc_hd__buf_2
*CAP
1 data[8] 0.000237698
2 *2351:X 0.000237698
3 data[8] trial_code[4] 0.000488835
4 data[8] trial_code[8] 0.000488835
*RES
1 *2351:X data[8] 25.1036 
*END

*D_NET *18 0.0012097
*CONN
*P data[9] O
*I *2352:X O *D sky130_fd_sc_hd__buf_2
*CAP
1 data[9] 0.000604849
2 *2352:X 0.000604849
3 data[9] trial_code[9] 0
*RES
1 *2352:X data[9] 25.5143 
*END

*D_NET *19 0.000907271
*CONN
*P data_gain[0] O
*I *2353:X O *D sky130_fd_sc_hd__buf_2
*CAP
1 data_gain[0] 0.000453635
2 *2353:X 0.000453635
3 data_gain[0] data_valid 0
*RES
1 *2353:X data_gain[0] 19.8729 
*END

*D_NET *20 0.00166881
*CONN
*P data_gain[1] O
*I *2354:X O *D sky130_fd_sc_hd__buf_2
*CAP
1 data_gain[1] 0.00054699
2 *2354:X 0.00054699
3 data_gain[1] gain_latched[0] 0
4 data_gain[1] gain_latched[1] 0
5 data_gain[1] *2333:A 0.000474815
6 data_gain[1] *2357:A 7.75767e-05
7 data_gain[1] *255:12 2.24405e-05
8 data_gain[1] *266:14 0
*RES
1 *2354:X data_gain[1] 27.2821 
*END

*D_NET *21 0.00089336
*CONN
*P data_valid O
*I *2355:X O *D sky130_fd_sc_hd__buf_2
*CAP
1 data_valid 0.00044668
2 *2355:X 0.00044668
3 data[7] data_valid 0
4 data_gain[0] data_valid 0
*RES
1 *2355:X data_valid 19.8729 
*END

*D_NET *22 0.00129708
*CONN
*P gain_latched[0] O
*I *2356:X O *D sky130_fd_sc_hd__buf_2
*CAP
1 gain_latched[0] 0.000648538
2 *2356:X 0.000648538
3 data_gain[1] gain_latched[0] 0
*RES
1 *2356:X gain_latched[0] 26.5321 
*END

*D_NET *23 0.00173016
*CONN
*P gain_latched[1] O
*I *2357:X O *D sky130_fd_sc_hd__buf_2
*CAP
1 gain_latched[1] 0.000337813
2 *2357:X 0.000337813
3 gain_latched[1] *2333:A 0.000510384
4 gain_latched[1] *2334:A 0.000488918
5 gain_latched[1] *266:14 5.52302e-05
6 data_gain[1] gain_latched[1] 0
*RES
1 *2357:X gain_latched[1] 26.8893 
*END

*D_NET *24 0.00169403
*CONN
*P gain_sel[0] I
*I *2333:A I *D sky130_fd_sc_hd__buf_2
*CAP
1 gain_sel[0] 0.000354415
2 *2333:A 0.000354415
3 data_gain[1] *2333:A 0.000474815
4 gain_latched[1] *2333:A 0.000510384
*RES
1 gain_sel[0] *2333:A 26.8179 
*END

*D_NET *25 0.00130796
*CONN
*P gain_sel[1] I
*I *2334:A I *D sky130_fd_sc_hd__buf_2
*CAP
1 gain_sel[1] 0.000398693
2 *2334:A 0.000398693
3 *2334:A *2336:A 0
4 *2334:A *266:14 2.16516e-05
5 gain_latched[1] *2334:A 0.000488918
*RES
1 gain_sel[1] *2334:A 25.05 
*END

*D_NET *26 0.00145174
*CONN
*P ready O
*I *2358:X O *D sky130_fd_sc_hd__buf_2
*CAP
1 ready 0.000578558
2 *2358:X 0.000578558
3 ready *2372:A 0.000100684
4 busy ready 0.000193943
*RES
1 *2358:X ready 24.8807 
*END

*D_NET *27 0.00157445
*CONN
*P rst_n I
*I *2335:A I *D sky130_fd_sc_hd__buf_2
*CAP
1 rst_n 0.000473207
2 *2335:A 0.000473207
3 *2335:A trial_code[1] 0.0005435
4 *2335:A *2363:A 8.45364e-05
*RES
1 rst_n *2335:A 26.5321 
*END

*D_NET *28 0.00119519
*CONN
*P sample_en O
*I *2359:X O *D sky130_fd_sc_hd__buf_2
*CAP
1 sample_en 0.000597594
2 *2359:X 0.000597594
*RES
1 *2359:X sample_en 24.8536 
*END

*D_NET *29 0.00116092
*CONN
*P start I
*I *2336:A I *D sky130_fd_sc_hd__buf_2
*CAP
1 start 0.000570816
2 *2336:A 0.000570816
3 *2336:A *2048:B1_N 1.92905e-05
4 *2334:A *2336:A 0
*RES
1 start *2336:A 25.05 
*END

*D_NET *30 0.000800021
*CONN
*P trial_code[0] O
*I *2360:X O *D sky130_fd_sc_hd__buf_2
*CAP
1 trial_code[0] 0.000295637
2 *2360:X 0.000295637
3 data[0] trial_code[0] 0.000208746
*RES
1 *2360:X trial_code[0] 18.6587 
*END

*D_NET *31 0.00132482
*CONN
*P trial_code[10] O
*I *2361:X O *D sky130_fd_sc_hd__buf_2
*CAP
1 trial_code[10] 0.000508835
2 *2361:X 0.000508835
3 trial_code[10] *332:10 0
4 data[10] trial_code[10] 0.000307145
5 data[4] trial_code[10] 0
*RES
1 *2361:X trial_code[10] 23.6664 
*END

*D_NET *32 0.000941937
*CONN
*P trial_code[11] O
*I *2362:X O *D sky130_fd_sc_hd__buf_2
*CAP
1 trial_code[11] 0.000414156
2 *2362:X 0.000414156
3 data[11] trial_code[11] 0.000113626
*RES
1 *2362:X trial_code[11] 22.8412 
*END

*D_NET *33 0.00164406
*CONN
*P trial_code[1] O
*I *2363:X O *D sky130_fd_sc_hd__buf_2
*CAP
1 trial_code[1] 0.000535773
2 *2363:X 0.000535773
3 trial_code[1] *2363:A 2.90135e-05
4 *2335:A trial_code[1] 0.0005435
*RES
1 *2363:X trial_code[1] 27.1393 
*END

*D_NET *34 0.00148308
*CONN
*P trial_code[2] O
*I *2364:X O *D sky130_fd_sc_hd__buf_2
*CAP
1 trial_code[2] 0.000497124
2 *2364:X 0.000497124
3 data[2] trial_code[2] 0.000488835
4 *2332:A trial_code[2] 0
*RES
1 *2364:X trial_code[2] 26.4607 
*END

*D_NET *35 0.00121654
*CONN
*P trial_code[3] O
*I *2365:X O *D sky130_fd_sc_hd__buf_2
*CAP
1 trial_code[3] 0.000608272
2 *2365:X 0.000608272
3 data[3] trial_code[3] 0
*RES
1 *2365:X trial_code[3] 25.5143 
*END

*D_NET *36 0.00131888
*CONN
*P trial_code[4] O
*I *2366:X O *D sky130_fd_sc_hd__buf_2
*CAP
1 trial_code[4] 0.000399466
2 *2366:X 0.000399466
3 trial_code[4] *2351:A 3.11088e-05
4 data[8] trial_code[4] 0.000488835
*RES
1 *2366:X trial_code[4] 25.1036 
*END

*D_NET *37 0.00094682
*CONN
*P trial_code[5] O
*I *2367:X O *D sky130_fd_sc_hd__buf_2
*CAP
1 trial_code[5] 0.0002591
2 *2367:X 0.0002591
3 data[5] trial_code[5] 0.00042862
4 data[6] trial_code[5] 0
*RES
1 *2367:X trial_code[5] 18.6587 
*END

*D_NET *38 0.000975334
*CONN
*P trial_code[6] O
*I *2368:X O *D sky130_fd_sc_hd__buf_2
*CAP
1 trial_code[6] 0.000274129
2 *2368:X 0.000274129
3 data[6] trial_code[6] 0.000427076
*RES
1 *2368:X trial_code[6] 18.6587 
*END

*D_NET *39 0.000910177
*CONN
*P trial_code[7] O
*I *2369:X O *D sky130_fd_sc_hd__buf_2
*CAP
1 trial_code[7] 0.000344452
2 *2369:X 0.000344452
3 data[0] trial_code[7] 0
4 data[7] trial_code[7] 0.000221274
*RES
1 *2369:X trial_code[7] 19.8729 
*END

*D_NET *40 0.00141988
*CONN
*P trial_code[8] O
*I *2370:X O *D sky130_fd_sc_hd__buf_2
*CAP
1 trial_code[8] 0.000465524
2 *2370:X 0.000465524
3 data[8] trial_code[8] 0.000488835
*RES
1 *2370:X trial_code[8] 25.925 
*END

*D_NET *41 0.0012097
*CONN
*P trial_code[9] O
*I *2371:X O *D sky130_fd_sc_hd__buf_2
*CAP
1 trial_code[9] 0.000604849
2 *2371:X 0.000604849
3 data[9] trial_code[9] 0
*RES
1 *2371:X trial_code[9] 25.5143 
*END

*D_NET *42 0.0211569
*CONN
*I *2093:B I *D sky130_fd_sc_hd__nor2_1
*I *2096:A1 I *D sky130_fd_sc_hd__a21oi_1
*I *2099:B I *D sky130_fd_sc_hd__nor2_1
*I *2100:A1 I *D sky130_fd_sc_hd__a21oi_1
*I *2081:B I *D sky130_fd_sc_hd__nor2_1
*I *2141:C I *D sky130_fd_sc_hd__nor3_1
*I *2140:B I *D sky130_fd_sc_hd__nor3_1
*I *2043:B I *D sky130_fd_sc_hd__nor2_1
*I *2044:A2 I *D sky130_fd_sc_hd__o21ai_0
*I *2108:A1 I *D sky130_fd_sc_hd__a21oi_1
*I *2082:A1 I *D sky130_fd_sc_hd__a21oi_1
*I *2103:B I *D sky130_fd_sc_hd__nor2_1
*I *2104:A1 I *D sky130_fd_sc_hd__a21oi_1
*I *2107:B I *D sky130_fd_sc_hd__nor2_1
*I *2057:A2 I *D sky130_fd_sc_hd__o2111ai_1
*I *2258:A I *D sky130_fd_sc_hd__dlygate4sd3_1
*I *2042:Y O *D sky130_fd_sc_hd__nor2_2
*CAP
1 *2093:B 0.000297072
2 *2096:A1 0.000136699
3 *2099:B 2.23854e-05
4 *2100:A1 0
5 *2081:B 0
6 *2141:C 0.000129934
7 *2140:B 0
8 *2043:B 0
9 *2044:A2 0
10 *2108:A1 0
11 *2082:A1 0.000724658
12 *2103:B 0.000101664
13 *2104:A1 0
14 *2107:B 0.0002452
15 *2057:A2 5.18802e-05
16 *2258:A 3.72704e-05
17 *2042:Y 0.000254646
18 *42:215 0.000972035
19 *42:204 0.00101585
20 *42:191 0.000884883
21 *42:178 0.000786114
22 *42:101 0.000347555
23 *42:97 0.000855065
24 *42:82 0.00048615
25 *42:80 0.00106783
26 *42:70 0.00172568
27 *42:45 0.000856865
28 *42:39 0.000325075
29 *42:31 0.000188565
30 *42:27 0.00113059
31 *42:10 0.00128194
32 *2057:A2 *85:8 6.42242e-05
33 *2057:A2 *210:24 0.00012401
34 *2082:A1 *2082:A2 5.71472e-05
35 *2082:A1 *2303:A 0.000231226
36 *2082:A1 *2305:A 0.000128154
37 *2082:A1 *282:176 7.80929e-05
38 *2093:B *2370:A 0
39 *2093:B *2371:A 7.30398e-05
40 *2096:A1 *2096:B1 0.000155469
41 *2096:A1 *2177:D 0.00010326
42 *2096:A1 *2370:A 0
43 *2096:A1 *2371:A 8.77022e-05
44 *2103:B *2104:A2 5.65955e-05
45 *2103:B *2304:A 4.73286e-05
46 *2107:B *2107:A 5.50052e-05
47 *2107:B *2108:A2 0.000128759
48 *2107:B *2294:A 2.53112e-06
49 *2107:B *2295:A 4.22609e-05
50 *2107:B *2296:A 0
51 *2141:C *2043:A 6.77303e-05
52 *2141:C *2138:A1 0
53 *2141:C *2141:B 0.000115467
54 *2141:C *219:16 9.60939e-05
55 *2141:C *279:14 0.00017335
56 *42:10 *2042:B 0.000309833
57 *42:10 *2129:B2 0.000180777
58 *42:10 *279:73 3.59033e-05
59 *42:10 *280:16 0.000196276
60 *42:27 *2143:A1 1.36077e-05
61 *42:27 *2150:A1 0.00046446
62 *42:27 *2150:A2 0.000117337
63 *42:27 *279:14 0.000380192
64 *42:27 *279:41 6.4992e-05
65 *42:31 *2043:A 1.90936e-05
66 *42:31 *279:14 2.04825e-05
67 *42:39 *2138:A2 0.000175519
68 *42:39 *2140:A 0.000219711
69 *42:39 *2152:A 0.000173804
70 *42:45 *2138:A2 1.17968e-05
71 *42:45 *2240:A 5.33005e-05
72 *42:45 *85:8 8.91726e-05
73 *42:45 *85:12 5.52302e-05
74 *42:45 *210:24 6.73939e-05
75 *42:45 *210:50 0.000128154
76 *42:70 *2044:A1 5.52238e-05
77 *42:70 *2053:B1 0.000104151
78 *42:70 *2151:A2 0.000126566
79 *42:70 *2199:D 7.02611e-05
80 *42:70 *2241:A 0.000118171
81 *42:70 *81:43 3.07455e-05
82 *42:70 *81:49 6.8726e-05
83 *42:70 *210:20 7.47367e-05
84 *42:80 *2108:B1 5.71472e-05
85 *42:80 *2111:A2 0
86 *42:80 *2180:CLK 0.000313632
87 *42:80 *2201:RESET_B 9.25014e-06
88 *42:80 *2230:A 0
89 *42:80 *2255:A 5.57914e-05
90 *42:80 *2296:A 0.000192608
91 *42:80 *81:49 0
92 *42:97 *2108:A2 4.97876e-05
93 *42:97 *2179:D 0
94 *42:97 *2179:RESET_B 1.3142e-05
95 *42:97 *2180:CLK 0
96 *42:97 *2296:A 0
97 *42:97 *2303:A 7.6644e-05
98 *42:97 *282:202 0
99 *42:101 *2104:A2 0.000104673
100 *42:101 *2104:B1 5.71472e-05
101 *42:101 *2193:RESET_B 9.41642e-05
102 *42:178 *2081:A 3.54096e-05
103 *42:178 *2082:A2 5.71472e-05
104 *42:178 *2082:B1 0.000344932
105 *42:178 *2315:A 0.000129868
106 *42:178 *179:70 0
107 *42:178 *179:74 0
108 *42:178 *282:176 0
109 *42:191 *2081:A 9.15842e-06
110 *42:191 *2134:A2 0
111 *42:204 *2099:A 0
112 *42:204 *2289:A 7.43578e-06
113 *42:204 *2290:A 0
114 *42:204 *2352:A 0
115 *42:204 *254:12 0.000151333
116 *42:215 *2289:A 0.000158971
*RES
1 *2042:Y *42:10 19.6393 
2 *42:10 *2258:A 14.3357 
3 *42:10 *42:27 9.4614 
4 *42:27 *42:31 4.77679 
5 *42:31 *42:39 13.4286 
6 *42:39 *42:45 8.41071 
7 *42:45 *2057:A2 15.4429 
8 *42:45 *42:70 16.4464 
9 *42:70 *42:80 29.0536 
10 *42:80 *42:82 4.5 
11 *42:82 *2107:B 18.7643 
12 *42:82 *42:97 4.98214 
13 *42:97 *42:101 7.91071 
14 *42:101 *2104:A1 9.3 
15 *42:101 *2103:B 11.5143 
16 *42:97 *2082:A1 20.9607 
17 *42:80 *2108:A1 9.3 
18 *42:70 *2044:A2 9.3 
19 *42:39 *2043:B 9.3 
20 *42:31 *2140:B 9.3 
21 *42:27 *2141:C 17.5768 
22 *2082:A1 *42:178 23.2464 
23 *42:178 *2081:B 13.8 
24 *42:178 *42:191 7.46429 
25 *42:191 *2100:A1 13.8 
26 *42:191 *42:204 13.1607 
27 *42:204 *2099:B 9.72857 
28 *42:204 *42:215 14.0714 
29 *42:215 *2096:A1 18.175 
30 *42:215 *2093:B 19.3536 
*END

*D_NET *43 0.000235283
*CONN
*I *2241:A I *D sky130_fd_sc_hd__dlygate4sd3_1
*I *2053:Y O *D sky130_fd_sc_hd__a21oi_1
*CAP
1 *2241:A 3.04063e-05
2 *2053:Y 3.04063e-05
3 *2241:A *2053:B1 5.62995e-05
4 *42:70 *2241:A 0.000118171
*RES
1 *2053:Y *2241:A 19.975 
*END

*D_NET *44 0.000492159
*CONN
*I *2238:A I *D sky130_fd_sc_hd__dlygate4sd3_1
*I *2052:Y O *D sky130_fd_sc_hd__nand2_1
*CAP
1 *2238:A 0.000169517
2 *2052:Y 0.000169517
3 *2238:A *2158:B 0
4 *2238:A *2200:D 5.43633e-05
5 *2238:A *164:10 0
6 *2238:A *203:23 9.87617e-05
*RES
1 *2052:Y *2238:A 31.0107 
*END

*D_NET *45 0.000571008
*CONN
*I *2255:A I *D sky130_fd_sc_hd__dlygate4sd3_1
*I *2049:X O *D sky130_fd_sc_hd__a21o_1
*CAP
1 *2255:A 0.000217683
2 *2049:X 0.000217683
3 *2255:A *2201:RESET_B 0
4 *2255:A *261:23 3.18676e-05
5 *2255:A *299:10 4.79842e-05
6 *42:80 *2255:A 5.57914e-05
*RES
1 *2049:X *2255:A 32.2071 
*END

*D_NET *46 0.000611867
*CONN
*I *2218:A I *D sky130_fd_sc_hd__dlygate4sd3_1
*I *2058:X O *D sky130_fd_sc_hd__mux2_1
*CAP
1 *2218:A 0.000147182
2 *2058:X 0.000147182
3 *2218:A *2058:A1 0.000317503
*RES
1 *2058:X *2218:A 22.3321 
*END

*D_NET *47 0.000274912
*CONN
*I *2328:A I *D sky130_fd_sc_hd__dlygate4sd3_1
*I *2059:X O *D sky130_fd_sc_hd__mux2_1
*CAP
1 *2328:A 0.000114584
2 *2059:X 0.000114584
3 *2328:A *81:10 4.57445e-05
*RES
1 *2059:X *2328:A 29.7786 
*END

*D_NET *48 0.000480825
*CONN
*I *2311:A I *D sky130_fd_sc_hd__dlygate4sd3_1
*I *2062:Y O *D sky130_fd_sc_hd__a21oi_1
*CAP
1 *2311:A 0.000183227
2 *2062:Y 0.000183227
3 *2311:A *2062:B1 0.00011437
*RES
1 *2062:Y *2311:A 22.0286 
*END

*D_NET *49 0.00181371
*CONN
*I *2293:A I *D sky130_fd_sc_hd__dlygate4sd3_1
*I *2067:Y O *D sky130_fd_sc_hd__a21oi_1
*CAP
1 *2293:A 0.000615703
2 *2067:Y 0.000615703
3 *2293:A *2066:A 6.05161e-06
4 *2293:A *2174:RESET_B 0
5 *2293:A *2292:A 9.77423e-05
6 *2293:A *281:153 2.58289e-05
7 *2293:A *281:159 0.000452685
*RES
1 *2067:Y *2293:A 39.5821 
*END

*D_NET *50 0.000453463
*CONN
*I *2282:A I *D sky130_fd_sc_hd__dlygate4sd3_1
*I *2072:Y O *D sky130_fd_sc_hd__a21oi_1
*CAP
1 *2282:A 0.00018049
2 *2072:Y 0.00018049
3 *2282:A *2072:B1 9.24825e-05
*RES
1 *2072:Y *2282:A 22.0286 
*END

*D_NET *51 0.000360547
*CONN
*I *2279:A I *D sky130_fd_sc_hd__dlygate4sd3_1
*I *2077:Y O *D sky130_fd_sc_hd__a21oi_1
*CAP
1 *2279:A 0.000106163
2 *2077:Y 0.000106163
3 *2279:A *2077:B1 0.00014822
*RES
1 *2077:Y *2279:A 29.7786 
*END

*D_NET *52 0.000123917
*CONN
*I *2316:A I *D sky130_fd_sc_hd__dlygate4sd3_1
*I *2082:Y O *D sky130_fd_sc_hd__a21oi_1
*CAP
1 *2316:A 5.05876e-05
2 *2082:Y 5.05876e-05
3 *2316:A *2082:A2 2.27416e-05
*RES
1 *2082:Y *2316:A 19.5643 
*END

*D_NET *53 0.00221217
*CONN
*I *2302:A I *D sky130_fd_sc_hd__dlygate4sd3_1
*I *2085:Y O *D sky130_fd_sc_hd__a21oi_1
*CAP
1 *2302:A 0.000614003
2 *2085:Y 0.000614003
3 *2302:A *2085:A1 3.21277e-05
4 *2302:A *2085:B1 0.000162372
5 *2302:A *2226:A 0
6 *2302:A *2275:A 0.000125736
7 *2302:A *196:6 5.65955e-05
8 *2302:A *281:127 0.000106403
9 *2302:A *281:153 0.000500929
*RES
1 *2085:Y *2302:A 41.725 
*END

*D_NET *54 0.000681778
*CONN
*I *2308:A I *D sky130_fd_sc_hd__dlygate4sd3_1
*I *2088:Y O *D sky130_fd_sc_hd__a21oi_1
*CAP
1 *2308:A 0.000268461
2 *2088:Y 0.000268461
3 *2308:A *272:25 0.000144856
*RES
1 *2088:Y *2308:A 23.6714 
*END

*D_NET *55 0.000393361
*CONN
*I *2299:A I *D sky130_fd_sc_hd__dlygate4sd3_1
*I *2092:Y O *D sky130_fd_sc_hd__a21oi_1
*CAP
1 *2299:A 0.000127975
2 *2092:Y 0.000127975
3 *2299:A *2202:CLK 9.25014e-06
4 *2299:A *178:104 0.000128161
5 *2299:A *281:29 0
*RES
1 *2092:Y *2299:A 30.1893 
*END

*D_NET *56 0.000505443
*CONN
*I *2285:A I *D sky130_fd_sc_hd__dlygate4sd3_1
*I *2096:Y O *D sky130_fd_sc_hd__a21oi_1
*CAP
1 *2285:A 0.000194843
2 *2096:Y 0.000194843
3 *2285:A *2177:D 1.72894e-05
4 *2285:A *2178:RESET_B 9.84673e-05
*RES
1 *2096:Y *2285:A 22.0286 
*END

*D_NET *57 0.000803264
*CONN
*I *2290:A I *D sky130_fd_sc_hd__dlygate4sd3_1
*I *2100:Y O *D sky130_fd_sc_hd__a21oi_1
*CAP
1 *2290:A 0.00030119
2 *2100:Y 0.00030119
3 *2290:A *2100:A2 6.9741e-05
4 *2290:A *2178:D 5.33978e-05
5 *2290:A *2289:A 7.77446e-05
6 *42:204 *2290:A 0
*RES
1 *2100:Y *2290:A 33.4393 
*END

*D_NET *58 0.00100752
*CONN
*I *2305:A I *D sky130_fd_sc_hd__dlygate4sd3_1
*I *2104:Y O *D sky130_fd_sc_hd__a21oi_1
*CAP
1 *2305:A 0.000284091
2 *2104:Y 0.000284091
3 *2305:A *2104:A2 0
4 *2305:A *2215:A 0
5 *2305:A *264:28 0.000311183
6 *2082:A1 *2305:A 0.000128154
*RES
1 *2104:Y *2305:A 32.2429 
*END

*D_NET *59 0.000707729
*CONN
*I *2296:A I *D sky130_fd_sc_hd__dlygate4sd3_1
*I *2108:Y O *D sky130_fd_sc_hd__a21oi_1
*CAP
1 *2296:A 0.000216513
2 *2108:Y 0.000216513
3 *2296:A *2108:B1 5.71472e-05
4 *2296:A *2180:CLK 2.49484e-05
5 *2107:B *2296:A 0
6 *42:80 *2296:A 0.000192608
7 *42:97 *2296:A 0
*RES
1 *2108:Y *2296:A 32.35 
*END

*D_NET *60 0.00129378
*CONN
*I *2262:A I *D sky130_fd_sc_hd__dlygate4sd3_1
*I *2109:X O *D sky130_fd_sc_hd__mux2_1
*CAP
1 *2262:A 0.000532463
2 *2109:X 0.000532463
3 *2262:A *2181:D 9.96553e-05
4 *2262:A *2313:A 0.0001292
5 *2262:A *281:37 0
*RES
1 *2109:X *2262:A 37.1 
*END

*D_NET *61 0.000126601
*CONN
*I *2260:A I *D sky130_fd_sc_hd__dlygate4sd3_1
*I *2110:X O *D sky130_fd_sc_hd__mux2_1
*CAP
1 *2260:A 4.73665e-05
2 *2110:X 4.73665e-05
3 *2260:A *2110:A0 3.18676e-05
4 *2260:A *2110:S 0
*RES
1 *2110:X *2260:A 19.5643 
*END

*D_NET *62 0.000491556
*CONN
*I *2214:A I *D sky130_fd_sc_hd__dlygate4sd3_1
*I *2115:X O *D sky130_fd_sc_hd__a22o_1
*CAP
1 *2214:A 0.000186696
2 *2115:X 0.000186696
3 *2214:A *2183:D 7.74135e-05
4 *2214:A *281:92 4.07505e-05
*RES
1 *2115:X *2214:A 30.6 
*END

*D_NET *63 0.000652737
*CONN
*I *2330:A I *D sky130_fd_sc_hd__dlygate4sd3_1
*I *2117:X O *D sky130_fd_sc_hd__a22o_1
*CAP
1 *2330:A 0.000180071
2 *2117:X 0.000180071
3 *2330:A *2119:A2 5.46383e-06
4 *2330:A *2170:CLK 0.000272344
5 *2330:A *2184:D 1.47872e-05
*RES
1 *2117:X *2330:A 22.7429 
*END

*D_NET *64 0.000632212
*CONN
*I *2324:A I *D sky130_fd_sc_hd__dlygate4sd3_1
*I *2119:X O *D sky130_fd_sc_hd__a22o_1
*CAP
1 *2324:A 8.82916e-05
2 *2119:X 8.82916e-05
3 *2324:A *2071:A2 9.61273e-05
4 *2324:A *2119:A1 4.71921e-05
5 *2324:A *95:6 0.00031231
*RES
1 *2119:X *2324:A 22.0286 
*END

*D_NET *65 0.000600991
*CONN
*I *2326:A I *D sky130_fd_sc_hd__dlygate4sd3_1
*I *2121:X O *D sky130_fd_sc_hd__a22o_1
*CAP
1 *2326:A 7.68069e-05
2 *2121:X 7.68069e-05
3 *2326:A *2121:A1 0.000127353
4 *2326:A *161:54 0.000320024
*RES
1 *2121:X *2326:A 22.0286 
*END

*D_NET *66 0.000778411
*CONN
*I *2220:A I *D sky130_fd_sc_hd__dlygate4sd3_1
*I *2123:X O *D sky130_fd_sc_hd__a22o_1
*CAP
1 *2220:A 0.00014162
2 *2123:X 0.00014162
3 *2220:A *2122:A1 0.000149223
4 *2220:A *2122:B1 0.000123288
5 *2220:A *179:12 0.00022266
*RES
1 *2123:X *2220:A 31.4214 
*END

*D_NET *67 0.00054927
*CONN
*I *2227:A I *D sky130_fd_sc_hd__dlygate4sd3_1
*I *2125:X O *D sky130_fd_sc_hd__a22o_1
*CAP
1 *2227:A 0.000172692
2 *2125:X 0.000172692
3 *2227:A *2174:CLK 2.89114e-05
4 *2227:A *2188:D 3.92854e-05
5 *2227:A *180:61 0.000126439
6 *2227:A *180:110 9.25014e-06
*RES
1 *2125:X *2227:A 30.6 
*END

*D_NET *68 0.000534516
*CONN
*I *2222:A I *D sky130_fd_sc_hd__dlygate4sd3_1
*I *2127:X O *D sky130_fd_sc_hd__a22o_1
*CAP
1 *2222:A 0.000127852
2 *2127:X 0.000127852
3 *2222:A *2175:CLK 0.000230828
4 *2222:A *279:90 4.79842e-05
*RES
1 *2127:X *2222:A 31.0286 
*END

*D_NET *69 0.00148232
*CONN
*I *2225:A I *D sky130_fd_sc_hd__dlygate4sd3_1
*I *2130:Y O *D sky130_fd_sc_hd__o31ai_1
*CAP
1 *2225:A 0.000474128
2 *2130:Y 0.000474128
3 *2225:A *2128:B 0
4 *2225:A *2129:A2 0.000227532
5 *2225:A *2129:A3 4.58192e-05
6 *2225:A *2130:B1 0.000145107
7 *2225:A *2190:CLK 0
8 *2225:A *2190:D 0
9 *2225:A *108:10 2.14378e-05
10 *2225:A *279:73 9.41642e-05
*RES
1 *2130:Y *2225:A 35.5286 
*END

*D_NET *70 0.000661475
*CONN
*I *2320:A I *D sky130_fd_sc_hd__dlygate4sd3_1
*I *2132:X O *D sky130_fd_sc_hd__a22o_1
*CAP
1 *2320:A 0.000114591
2 *2132:X 0.000114591
3 *2320:A *2096:A2 6.05139e-05
4 *2320:A *2098:A1 0.000180207
5 *2320:A *2134:B1 6.96806e-05
6 *2320:A *282:111 0.000121891
*RES
1 *2132:X *2320:A 31.0107 
*END

*D_NET *71 0.000677035
*CONN
*I *2322:A I *D sky130_fd_sc_hd__dlygate4sd3_1
*I *2134:X O *D sky130_fd_sc_hd__a22o_1
*CAP
1 *2322:A 0.000138663
2 *2134:X 0.000138663
3 *2322:A *2134:A2 9.67754e-05
4 *2322:A *2134:B1 0.000302934
*RES
1 *2134:X *2322:A 22.0286 
*END

*D_NET *72 0.00233735
*CONN
*I *2216:A I *D sky130_fd_sc_hd__dlygate4sd3_1
*I *2136:X O *D sky130_fd_sc_hd__a22o_1
*CAP
1 *2216:A 0.000732661
2 *2136:X 0.000732661
3 *2216:A *2106:A1 0.000234523
4 *2216:A *2136:A2 5.29076e-05
5 *2216:A *2137:A2 0
6 *2216:A *2137:B1 0
7 *2216:A *2138:A3 0
8 *2216:A *2196:CLK 0.000230482
9 *2216:A *124:31 0.000354111
*RES
1 *2136:X *2216:A 40.8321 
*END

*D_NET *73 0.000621617
*CONN
*I *2232:A I *D sky130_fd_sc_hd__dlygate4sd3_1
*I *2139:Y O *D sky130_fd_sc_hd__a21oi_1
*CAP
1 *2232:A 0.000152077
2 *2139:Y 0.000152077
3 *2232:A *2106:B1 3.28616e-05
4 *2232:A *2139:A1 6.35976e-05
5 *2232:A *2194:CLK 0.000144773
6 *2232:A *2196:RESET_B 7.62323e-05
*RES
1 *2139:Y *2232:A 31.8143 
*END

*D_NET *74 0.000627988
*CONN
*I *2243:A I *D sky130_fd_sc_hd__dlygate4sd3_1
*I *2143:X O *D sky130_fd_sc_hd__o22a_1
*CAP
1 *2243:A 0.000176504
2 *2143:X 0.000176504
3 *2243:A *2142:A1 7.83659e-05
4 *2243:A *2143:B1 5.65955e-05
5 *2243:A *219:16 0.000129944
6 *4:18 *2243:A 1.00733e-05
*RES
1 *2143:X *2243:A 30.725 
*END

*D_NET *75 0.000334921
*CONN
*I *2246:A I *D sky130_fd_sc_hd__dlygate4sd3_1
*I *2146:Y O *D sky130_fd_sc_hd__a21oi_1
*CAP
1 *2246:A 0.000123893
2 *2146:Y 0.000123893
3 *2246:A *2146:A2 3.0089e-05
4 *2246:A *2146:B1 7.20217e-06
5 *2246:A *2149:B1 3.29297e-05
6 *2246:A *2194:CLK 1.69151e-05
*RES
1 *2146:Y *2246:A 29.8098 
*END

*D_NET *76 0.00259065
*CONN
*I *2249:A I *D sky130_fd_sc_hd__dlygate4sd3_1
*I *2149:Y O *D sky130_fd_sc_hd__a21oi_1
*CAP
1 *2249:A 0.000645002
2 *2149:Y 0.000645002
3 *2249:A *2069:B 0.000266486
4 *2249:A *2149:A1 3.67252e-05
5 *2249:A *2149:A2 1.83053e-05
6 *2249:A *2245:A 0.000354826
7 *2249:A *93:8 0.000266486
8 *2249:A *175:47 0.000237261
9 *2249:A *213:20 7.58841e-05
10 *2249:A *213:58 4.46701e-05
*RES
1 *2149:Y *2249:A 40.9214 
*END

*D_NET *77 0.000221053
*CONN
*I *2251:A I *D sky130_fd_sc_hd__dlygate4sd3_1
*I *2151:X O *D sky130_fd_sc_hd__a32o_1
*CAP
1 *2251:A 5.94033e-05
2 *2151:X 5.94033e-05
3 *2251:A *2151:A2 3.5707e-05
4 *2251:A *2152:A 6.65398e-05
5 *2251:A *207:57 0
*RES
1 *2151:X *2251:A 29.2429 
*END

*D_NET *78 0.00104921
*CONN
*I *2229:A I *D sky130_fd_sc_hd__dlygate4sd3_1
*I *2155:Y O *D sky130_fd_sc_hd__o21ai_0
*CAP
1 *2229:A 0.000229092
2 *2155:Y 0.000229092
3 *2229:A *2153:B 0.000102983
4 *2229:A *2155:A2 0.000286591
5 *2229:A *2160:B 0.000166539
6 *2229:A *150:14 3.49119e-05
*RES
1 *2155:Y *2229:A 33.8321 
*END

*D_NET *79 0.000549728
*CONN
*I *2235:A I *D sky130_fd_sc_hd__dlygate4sd3_1
*I *2159:Y O *D sky130_fd_sc_hd__o21ai_0
*CAP
1 *2235:A 7.41701e-05
2 *2159:Y 7.41701e-05
3 *2235:A *2153:B 9.58689e-05
4 *2235:A *2159:B1 0.000126874
5 *2235:A *2165:CLK 0.000178645
*RES
1 *2159:Y *2235:A 30.1893 
*END

*D_NET *80 0.000373344
*CONN
*I *2318:A I *D sky130_fd_sc_hd__dlygate4sd3_1
*I *2163:X O *D sky130_fd_sc_hd__o22a_1
*CAP
1 *2318:A 9.9893e-05
2 *2163:X 9.9893e-05
3 *2318:A *2054:A 4.60805e-05
4 *2318:A *207:10 0.000127478
*RES
1 *2163:X *2318:A 29.7786 
*END

*D_NET *81 0.0119974
*CONN
*I *2053:A2 I *D sky130_fd_sc_hd__a21oi_1
*I *2111:A2 I *D sky130_fd_sc_hd__a21boi_0
*I *2049:A2 I *D sky130_fd_sc_hd__a21o_1
*I *2057:B1 I *D sky130_fd_sc_hd__o2111ai_1
*I *2048:Y O *D sky130_fd_sc_hd__a21boi_0
*CAP
1 *2053:A2 2.23854e-05
2 *2111:A2 0.000312185
3 *2049:A2 0
4 *2057:B1 0
5 *2048:Y 0
6 *81:49 0.00046267
7 *81:43 0.000587814
8 *81:22 0.00156241
9 *81:10 0.00238671
10 *81:6 0.00123925
11 *2111:A2 *2111:A1 6.05161e-06
12 *81:10 *2059:A0 0.00125157
13 *81:10 *2059:S 0.000298254
14 *81:10 *2110:A1 0
15 *81:10 *2168:CLK 9.57064e-05
16 *81:10 *2182:D 0.000129868
17 *81:10 *174:15 0.000159687
18 *81:10 *178:14 0
19 *81:10 *178:20 8.92059e-05
20 *81:10 *178:22 0.000108817
21 *81:10 *266:14 5.90911e-05
22 *81:10 *280:16 0.000608238
23 *81:10 *338:10 0
24 *81:22 *2047:A 0.000367245
25 *81:22 *2052:A 0.000185124
26 *81:22 *2052:B 5.52238e-05
27 *81:22 *2056:A 9.83388e-05
28 *81:22 *2057:A1 1.05524e-05
29 *81:22 *2152:A 0.000110843
30 *81:22 *2152:B 0.00016615
31 *81:22 *2205:A 0.000112841
32 *81:22 *2253:A 9.90431e-05
33 *81:22 *174:15 6.10013e-05
34 *81:43 *2053:B1 0.000230475
35 *81:43 *2057:A1 5.33005e-05
36 *81:43 *2057:C1 1.04232e-05
37 *81:43 *2057:D1 5.7661e-06
38 *81:43 *2111:A1 0
39 *81:43 *2199:CLK 4.87953e-05
40 *81:43 *2199:D 7.83659e-05
41 *81:43 *210:20 0.000358971
42 *81:43 *210:24 2.18827e-05
43 *81:43 *211:12 3.17148e-05
44 *81:43 *282:308 0
45 *81:43 *282:340 3.31889e-05
46 *81:49 *2111:A1 0
47 *81:49 *210:20 0.000230482
48 *81:49 *261:23 0.000102545
49 *2328:A *81:10 4.57445e-05
50 *42:70 *81:43 3.07455e-05
51 *42:70 *81:49 6.8726e-05
52 *42:80 *2111:A2 0
53 *42:80 *81:49 0
*RES
1 *2048:Y *81:6 13.8 
2 *81:6 *81:10 41.3571 
3 *81:10 *81:22 31.7143 
4 *81:22 *2057:B1 9.3 
5 *81:22 *81:43 18.5357 
6 *81:43 *81:49 8.625 
7 *81:49 *2049:A2 13.8 
8 *81:49 *2111:A2 19.2464 
9 *81:43 *2053:A2 9.72857 
*END

*D_NET *82 0.00093481
*CONN
*I *2237:A I *D sky130_fd_sc_hd__dlygate4sd3_1
*I *2050:Y O *D sky130_fd_sc_hd__nand2_1
*CAP
1 *2237:A 0.00011712
2 *2050:Y 0.00011712
3 *2237:A *2050:B 2.77173e-05
4 *2237:A *2236:A 0.00010096
5 *2237:A *177:16 0.000258938
6 *2237:A *207:8 0.000312955
*RES
1 *2050:Y *2237:A 23.3857 
*END

*D_NET *83 0.00385093
*CONN
*I *2057:C1 I *D sky130_fd_sc_hd__o2111ai_1
*I *2052:B I *D sky130_fd_sc_hd__nand2_1
*I *2051:Y O *D sky130_fd_sc_hd__nand2_1
*CAP
1 *2057:C1 0.000393727
2 *2052:B 0.000251736
3 *2051:Y 0.000541515
4 *83:10 0.00118698
5 *2052:B *2151:B2 3.17148e-05
6 *2052:B *2198:RESET_B 0
7 *2052:B *2200:D 0.000200413
8 *2052:B *177:10 0.000128161
9 *2052:B *177:99 0.00010326
10 *2052:B *282:353 0
11 *2052:B *282:355 0
12 *2057:C1 *2151:B1 1.1671e-05
13 *2057:C1 *2151:B2 0.000269372
14 *2057:C1 *282:340 8.25843e-06
15 *2057:C1 *282:351 0.000130618
16 *83:10 *2129:B2 0.000332298
17 *83:10 *2151:B2 0.000101545
18 *83:10 *177:99 9.40167e-05
19 *81:22 *2052:B 5.52238e-05
20 *81:43 *2057:C1 1.04232e-05
*RES
1 *2051:Y *83:10 21.8357 
2 *83:10 *2052:B 19.925 
3 *83:10 *2057:C1 20.925 
*END

*D_NET *84 0.000554247
*CONN
*I *2056:B I *D sky130_fd_sc_hd__nor2_1
*I *2055:Y O *D sky130_fd_sc_hd__nand2_1
*CAP
1 *2056:B 0.000158312
2 *2055:Y 0.000158312
3 *2056:B *2228:A 1.42249e-05
4 *2056:B *282:365 0.000141197
5 *4:34 *2056:B 8.22006e-05
*RES
1 *2055:Y *2056:B 31.6714 
*END

*D_NET *85 0.00595567
*CONN
*I *2138:A2 I *D sky130_fd_sc_hd__a311oi_1
*I *2129:A2 I *D sky130_fd_sc_hd__a32oi_1
*I *2113:C_N I *D sky130_fd_sc_hd__nor3b_1
*I *2340:A I *D sky130_fd_sc_hd__clkbuf_2
*I *2057:Y O *D sky130_fd_sc_hd__o2111ai_1
*CAP
1 *2138:A2 0.00024328
2 *2129:A2 0.000385735
3 *2113:C_N 2.03441e-05
4 *2340:A 0
5 *2057:Y 0.000137299
6 *85:19 0.000784899
7 *85:12 0.000796642
8 *85:8 0.000798401
9 *2113:C_N *2130:A1 5.7661e-06
10 *2129:A2 *2113:B 1.55885e-05
11 *2129:A2 *2129:A3 0
12 *2129:A2 *2130:A1 0.000219219
13 *2129:A2 *2130:B1 8.81131e-05
14 *2129:A2 *2190:CLK 3.0285e-05
15 *2129:A2 *125:14 9.60939e-05
16 *2129:A2 *279:41 2.98258e-05
17 *2129:A2 *279:50 4.97097e-05
18 *2138:A2 *2138:A1 0.0001399
19 *2138:A2 *2138:B1 0
20 *2138:A2 *2152:A 9.41918e-05
21 *2138:A2 *124:14 0.000101545
22 *2138:A2 *210:50 7.1724e-05
23 *85:8 *2047:A 0.000177234
24 *85:8 *2152:A 7.57869e-05
25 *85:8 *210:24 9.10431e-06
26 *85:12 *2043:A 0.000186669
27 *85:12 *2143:B2 0.000482128
28 *85:12 *2240:A 2.14658e-05
29 *85:19 *2113:B 5.30637e-06
30 *85:19 *2143:B2 5.65955e-05
31 *85:19 *2250:A 5.52302e-05
32 *85:19 *222:6 1.59373e-05
33 *85:19 *280:16 0.000138178
34 *2057:A2 *85:8 6.42242e-05
35 *2225:A *2129:A2 0.000227532
36 *42:39 *2138:A2 0.000175519
37 *42:45 *2138:A2 1.17968e-05
38 *42:45 *85:8 8.91726e-05
39 *42:45 *85:12 5.52302e-05
*RES
1 *2057:Y *85:8 17.8714 
2 *85:8 *85:12 12.4286 
3 *85:12 *2340:A 9.3 
4 *85:12 *85:19 6.69643 
5 *85:19 *2113:C_N 9.72857 
6 *85:19 *2129:A2 26.3357 
7 *85:8 *2138:A2 19.8357 
*END

*D_NET *86 0.00160435
*CONN
*I *2310:A I *D sky130_fd_sc_hd__dlygate4sd3_1
*I *2060:Y O *D sky130_fd_sc_hd__nor2_1
*CAP
1 *2310:A 0.000667217
2 *2060:Y 0.000667217
3 *2310:A *2060:A 0.000269919
4 *2310:A *277:120 0
*RES
1 *2060:Y *2310:A 37.5464 
*END

*D_NET *87 0.00164873
*CONN
*I *2114:A I *D sky130_fd_sc_hd__nand2_1
*I *2062:A2 I *D sky130_fd_sc_hd__a21oi_1
*I *2061:Y O *D sky130_fd_sc_hd__o21ai_0
*CAP
1 *2114:A 7.91492e-05
2 *2062:A2 0.000349135
3 *2061:Y 0.000428284
4 *2062:A2 *278:10 0.00015244
5 *2062:A2 *279:90 0.000150773
6 *2062:A2 *281:92 0.000218656
7 *2114:A *2061:A1 0.000101062
8 *2114:A *2061:A2 2.38501e-05
9 *2114:A *2061:B1 6.05161e-06
10 *2114:A *2115:B2 0.000139331
*RES
1 *2061:Y *2062:A2 35.8321 
2 *2061:Y *2114:A 20.7964 
*END

*D_NET *88 0.00990283
*CONN
*I *2064:C I *D sky130_fd_sc_hd__or3_1
*I *2083:A2 I *D sky130_fd_sc_hd__o31ai_1
*I *2145:B I *D sky130_fd_sc_hd__nand3_1
*I *2122:A1 I *D sky130_fd_sc_hd__o21ai_0
*I *2097:C I *D sky130_fd_sc_hd__or3_1
*I *2063:Y O *D sky130_fd_sc_hd__nand2b_1
*CAP
1 *2064:C 0.000461719
2 *2083:A2 0.000423958
3 *2145:B 0.000169039
4 *2122:A1 0.000261536
5 *2097:C 2.56422e-05
6 *2063:Y 0.000138218
7 *88:61 0.000994265
8 *88:26 0.000464958
9 *88:18 0.00140799
10 *88:12 0.00130798
11 *2064:C *2064:A 2.14658e-05
12 *2064:C *2075:A 0.000446603
13 *2064:C *161:54 0
14 *2064:C *175:47 0
15 *2064:C *222:148 7.61932e-05
16 *2083:A2 *2083:A1 5.33005e-05
17 *2083:A2 *2083:A3 1.59935e-05
18 *2083:A2 *101:6 0.000230684
19 *2083:A2 *229:30 0.000660801
20 *2097:C *2082:A2 7.43578e-06
21 *2097:C *2097:A 2.28499e-05
22 *2097:C *102:6 4.58976e-05
23 *2097:C *181:100 5.33005e-05
24 *2122:A1 *2097:B 0
25 *2122:A1 *2122:B1 4.0708e-05
26 *2122:A1 *2123:A2 4.53834e-05
27 *2122:A1 *2173:RESET_B 0.000142856
28 *2122:A1 *114:8 0
29 *2122:A1 *124:76 6.47136e-05
30 *2122:A1 *179:12 8.77171e-05
31 *2145:B *2137:A2 0.000265453
32 *2145:B *2145:A 9.60939e-05
33 *2145:B *2196:CLK 0.000175512
34 *2145:B *124:61 0.000234817
35 *88:12 *2074:B 4.79842e-05
36 *88:12 *2197:RESET_B 0.000104974
37 *88:12 *161:54 0
38 *88:12 *175:47 0
39 *88:18 *2148:A 0.000297341
40 *88:18 *2197:CLK 0.000265843
41 *88:18 *2248:A 2.64262e-06
42 *88:18 *157:23 0.000266473
43 *88:26 *2097:B 6.2589e-06
44 *88:26 *2106:A1 0
45 *88:26 *2123:A2 9.25014e-06
46 *88:26 *124:61 0.000140807
47 *88:26 *181:100 0.000168939
48 *88:61 *175:47 0
49 *2220:A *2122:A1 0.000149223
*RES
1 *2063:Y *88:12 17.0143 
2 *88:12 *88:18 23.0893 
3 *88:18 *88:26 4.45536 
4 *88:26 *2097:C 14.7464 
5 *88:26 *2122:A1 20.2821 
6 *88:18 *2145:B 19.3982 
7 *88:12 *88:61 1.64286 
8 *88:61 *2083:A2 24.3982 
9 *88:61 *2064:C 22.7643 
*END

*D_NET *89 0.00459683
*CONN
*I *2065:A2 I *D sky130_fd_sc_hd__o21ai_0
*I *2114:B I *D sky130_fd_sc_hd__nand2_1
*I *2064:X O *D sky130_fd_sc_hd__or3_1
*CAP
1 *2065:A2 0.000388925
2 *2114:B 0.000605095
3 *2064:X 0.000280722
4 *89:6 0.00127474
5 *2065:A2 *2125:A2 5.30637e-06
6 *2065:A2 *2125:B2 1.40415e-05
7 *2065:A2 *278:32 0.000271258
8 *2065:A2 *279:109 0.000511908
9 *2114:B *2061:A1 1.37292e-05
10 *2114:B *2070:C 4.00025e-05
11 *2114:B *2124:A2 0.000250208
12 *2114:B *2124:B1 0.000179656
13 *2114:B *2126:B1 6.65398e-05
14 *2114:B *2127:B2 2.6949e-05
15 *2114:B *101:10 0.000365682
16 *2114:B *101:20 0.00010326
17 *2114:B *108:10 0.000174098
18 *2114:B *181:30 2.47093e-05
19 *2114:B *278:10 0
20 *2114:B *278:21 0
21 *2114:B *278:32 0
*RES
1 *2064:X *89:6 12.3 
2 *89:6 *2114:B 33.9071 
3 *89:6 *2065:A2 27.3893 
*END

*D_NET *90 0.0015861
*CONN
*I *2067:A2 I *D sky130_fd_sc_hd__a21oi_1
*I *2116:A I *D sky130_fd_sc_hd__nand2_1
*I *2065:Y O *D sky130_fd_sc_hd__o21ai_0
*CAP
1 *2067:A2 0.000138407
2 *2116:A 0.000431875
3 *2065:Y 0
4 *90:4 0.000570282
5 *2067:A2 *2065:B1 3.20512e-05
6 *2067:A2 *281:175 0.000142053
7 *2116:A *2065:A1 4.35567e-05
8 *2116:A *2065:B1 6.26672e-05
9 *2116:A *2186:RESET_B 3.29297e-05
10 *2116:A *94:10 4.67124e-05
11 *2116:A *181:24 8.55687e-05
*RES
1 *2065:Y *90:4 9.3 
2 *90:4 *2116:A 24.5857 
3 *90:4 *2067:A2 12.6214 
*END

*D_NET *91 0.00021075
*CONN
*I *2292:A I *D sky130_fd_sc_hd__dlygate4sd3_1
*I *2066:Y O *D sky130_fd_sc_hd__nor2_1
*CAP
1 *2292:A 2.90292e-05
2 *2066:Y 2.90292e-05
3 *2292:A *281:159 5.49489e-05
4 *2293:A *2292:A 9.77423e-05
*RES
1 *2066:Y *2292:A 19.5464 
*END

*D_NET *92 0.000600995
*CONN
*I *2281:A I *D sky130_fd_sc_hd__dlygate4sd3_1
*I *2068:Y O *D sky130_fd_sc_hd__nor2_1
*CAP
1 *2281:A 0.000140486
2 *2068:Y 0.000140486
3 *2281:A *2068:A 0.000320024
*RES
1 *2068:Y *2281:A 22.0107 
*END

*D_NET *93 0.00855427
*CONN
*I *2101:C I *D sky130_fd_sc_hd__or3_1
*I *2145:C I *D sky130_fd_sc_hd__nand3_1
*I *2086:A2 I *D sky130_fd_sc_hd__o31ai_1
*I *2070:C I *D sky130_fd_sc_hd__or3_1
*I *2124:A1 I *D sky130_fd_sc_hd__o21ai_0
*I *2069:Y O *D sky130_fd_sc_hd__nand2b_1
*CAP
1 *2101:C 0.000247233
2 *2145:C 6.97358e-05
3 *2086:A2 1.99482e-05
4 *2070:C 0.000364453
5 *2124:A1 0
6 *2069:Y 0.00131201
7 *93:56 0.000841922
8 *93:12 0.000521313
9 *93:8 0.000963869
10 *2070:C *2124:A2 1.02504e-05
11 *2070:C *94:10 5.70551e-05
12 *2070:C *181:24 3.17148e-05
13 *2070:C *181:26 0.000332231
14 *2070:C *181:76 0.000443648
15 *2070:C *278:32 0
16 *2101:C *2079:B 4.22908e-05
17 *2101:C *2097:A 0
18 *2101:C *2122:A2 0.00010946
19 *2101:C *2137:A1 0
20 *2101:C *100:23 5.83304e-05
21 *2101:C *100:34 0.000230226
22 *2101:C *157:36 0
23 *2101:C *229:32 1.39726e-05
24 *2145:C *2137:A1 0
25 *2145:C *100:23 7.6644e-05
26 *2145:C *229:90 0
27 *93:8 *2063:B 6.26774e-06
28 *93:8 *2069:A_N 0.000434115
29 *93:8 *2069:B 0.000178952
30 *93:8 *2086:B1 0
31 *93:8 *216:63 9.58508e-05
32 *93:12 *2124:A2 0.000238528
33 *93:12 *101:10 0.000318316
34 *93:12 *181:26 0.000177948
35 *93:12 *181:28 0.000389854
36 *93:12 *181:30 1.02504e-05
37 *93:56 *2148:A 1.21258e-05
38 *93:56 *2148:B 6.79915e-05
39 *93:56 *2245:A 0.000442482
40 *93:56 *229:90 0.000128787
41 *2114:B *2070:C 4.00025e-05
42 *2249:A *93:8 0.000266486
*RES
1 *2069:Y *93:8 24.5321 
2 *93:8 *93:12 11.6071 
3 *93:12 *2124:A1 13.8 
4 *93:12 *2070:C 23.55 
5 *93:8 *2086:A2 9.63036 
6 *2069:Y *93:56 30.2464 
7 *93:56 *2145:C 15.1393 
8 *93:56 *2101:C 18.9429 
*END

*D_NET *94 0.00192546
*CONN
*I *2071:A2 I *D sky130_fd_sc_hd__o21ai_0
*I *2116:B I *D sky130_fd_sc_hd__nand2_1
*I *2070:X O *D sky130_fd_sc_hd__or3_1
*CAP
1 *2071:A2 0.00023923
2 *2116:B 0
3 *2070:X 0.000297995
4 *94:10 0.000537225
5 *2071:A2 *2071:A1 5.50052e-05
6 *2071:A2 *2119:A1 0.000268049
7 *2071:A2 *2186:RESET_B 0.000127245
8 *2071:A2 *95:6 4.22609e-05
9 *94:10 *2070:B 0
10 *94:10 *2186:RESET_B 3.29297e-05
11 *94:10 *2325:A 6.13903e-05
12 *94:10 *180:19 0
13 *94:10 *181:18 0
14 *94:10 *181:24 6.42338e-05
15 *2070:C *94:10 5.70551e-05
16 *2116:A *94:10 4.67124e-05
17 *2324:A *2071:A2 9.61273e-05
*RES
1 *2070:X *94:10 19.6393 
2 *94:10 *2116:B 13.8 
3 *94:10 *2071:A2 20.0679 
*END

*D_NET *95 0.00281617
*CONN
*I *2072:A2 I *D sky130_fd_sc_hd__a21oi_1
*I *2118:A I *D sky130_fd_sc_hd__nand2_1
*I *2071:Y O *D sky130_fd_sc_hd__o21ai_0
*CAP
1 *2072:A2 0.000260346
2 *2118:A 0.00013912
3 *2071:Y 0.000469581
4 *95:6 0.000869048
5 *2072:A2 *2072:A1 5.33005e-05
6 *2072:A2 *2171:CLK 0.000223632
7 *2072:A2 *2171:RESET_B 0
8 *2072:A2 *2185:D 3.18309e-05
9 *2072:A2 *180:30 0.000242599
10 *2072:A2 *276:12 0.000106433
11 *2118:A *2119:B2 2.10019e-05
12 *2118:A *276:25 3.06878e-06
13 *95:6 *2071:A1 6.05161e-06
14 *95:6 *2119:A1 3.15815e-05
15 *95:6 *276:25 4.00276e-06
16 *2071:A2 *95:6 4.22609e-05
17 *2324:A *95:6 0.00031231
*RES
1 *2071:Y *95:6 15.5857 
2 *95:6 *2118:A 11.2821 
3 *95:6 *2072:A2 25.1393 
*END

*D_NET *96 0.000537968
*CONN
*I *2278:A I *D sky130_fd_sc_hd__dlygate4sd3_1
*I *2073:Y O *D sky130_fd_sc_hd__nor2_1
*CAP
1 *2278:A 0.00024041
2 *2073:Y 0.00024041
3 *2278:A *2073:A 0
4 *2278:A *2073:B 5.71472e-05
5 *2278:A *2346:A 0
6 *2278:A *215:10 0
7 *2278:A *270:14 0
*RES
1 *2073:Y *2278:A 31.0107 
*END

*D_NET *97 0.00250897
*CONN
*I *2075:C I *D sky130_fd_sc_hd__or3_1
*I *2089:B I *D sky130_fd_sc_hd__or3_1
*I *2126:A1 I *D sky130_fd_sc_hd__o21ai_0
*I *2074:Y O *D sky130_fd_sc_hd__nand2_1
*CAP
1 *2075:C 0.000203925
2 *2089:B 0
3 *2126:A1 0.000141697
4 *2074:Y 6.94563e-05
5 *97:14 0.000535532
6 *97:8 0.000667217
7 *2075:C *161:54 0
8 *2075:C *229:26 3.0285e-05
9 *2075:C *229:112 7.67408e-05
10 *2126:A1 *2089:A 9.90367e-05
11 *2126:A1 *2089:C 9.61553e-05
12 *2126:A1 *101:20 1.33343e-05
13 *97:8 *2197:CLK 5.33334e-05
14 *97:14 *2074:A 0.000153054
15 *97:14 *161:54 0
16 *97:14 *216:59 0.000173804
17 *97:14 *229:12 0.000126843
18 *97:14 *229:26 6.85604e-05
*RES
1 *2074:Y *97:8 14.7464 
2 *97:8 *97:14 12.4821 
3 *97:14 *2126:A1 12.6214 
4 *97:14 *2089:B 9.3 
5 *97:8 *2075:C 17.8714 
*END

*D_NET *98 0.00223465
*CONN
*I *2118:B I *D sky130_fd_sc_hd__nand2_1
*I *2076:A2 I *D sky130_fd_sc_hd__o21ai_0
*I *2075:X O *D sky130_fd_sc_hd__or3_1
*CAP
1 *2118:B 0.000266121
2 *2076:A2 7.11054e-05
3 *2075:X 0.000201051
4 *98:10 0.000538277
5 *2076:A2 *2076:B1 0.000144773
6 *2076:A2 *181:76 6.09688e-05
7 *2076:A2 *181:80 5.71472e-05
8 *2118:B *2076:B1 4.89044e-05
9 *2118:B *2267:A 0.000124731
10 *2118:B *2365:A 7.46072e-05
11 *2118:B *161:54 0.000117189
12 *2118:B *180:19 6.82409e-05
13 *2118:B *336:10 4.88537e-05
14 *98:10 *2070:A 0
15 *98:10 *2075:A 1.92905e-05
16 *98:10 *161:54 0.000340781
17 *98:10 *180:10 4.48113e-05
18 *98:10 *180:19 7.79781e-06
*RES
1 *2075:X *98:10 18.7107 
2 *98:10 *2076:A2 15.9786 
3 *98:10 *2118:B 21.2107 
*END

*D_NET *99 0.00269337
*CONN
*I *2077:A2 I *D sky130_fd_sc_hd__a21oi_1
*I *2120:B1 I *D sky130_fd_sc_hd__o21ai_0
*I *2076:Y O *D sky130_fd_sc_hd__o21ai_0
*CAP
1 *2077:A2 0.000391116
2 *2120:B1 0.000239035
3 *2076:Y 0.000235107
4 *99:6 0.000865258
5 *2077:A2 *2077:A1 5.49995e-05
6 *2077:A2 *2077:B1 2.53112e-06
7 *2077:A2 *2121:A2 2.06112e-05
8 *2077:A2 *2186:D 0.000103437
9 *2077:A2 *276:25 0.000168728
10 *2077:A2 *276:33 8.22793e-06
11 *2120:B1 *161:54 0
12 *2120:B1 *181:80 6.97494e-05
13 *99:6 *2076:B1 5.71472e-05
14 *99:6 *181:80 0.00011674
15 *4:10 *2077:A2 0.000298638
16 *4:10 *2120:B1 6.20472e-05
*RES
1 *2076:Y *99:6 12.7107 
2 *99:6 *2120:B1 21.7107 
3 *99:6 *2077:A2 28.175 
*END

*D_NET *100 0.00608636
*CONN
*I *2120:A2 I *D sky130_fd_sc_hd__o21ai_0
*I *2080:A3 I *D sky130_fd_sc_hd__o31ai_1
*I *2148:B I *D sky130_fd_sc_hd__nand2_1
*I *2137:A2 I *D sky130_fd_sc_hd__o21ai_0
*I *2078:Y O *D sky130_fd_sc_hd__nand2_1
*CAP
1 *2120:A2 0.000579588
2 *2080:A3 0
3 *2148:B 0.000111232
4 *2137:A2 0.000546433
5 *2078:Y 0.000103483
6 *100:34 0.000820036
7 *100:23 0.000414479
8 *100:6 0.000712715
9 *2120:A2 *2094:A 0.000136676
10 *2120:A2 *2120:A1 0.000126778
11 *2120:A2 *2121:B2 1.05731e-05
12 *2120:A2 *2123:B1 0
13 *2120:A2 *2219:A 0.000150043
14 *2120:A2 *161:54 9.83442e-05
15 *2120:A2 *181:86 0
16 *2120:A2 *181:127 0
17 *2120:A2 *188:10 0.000248382
18 *2137:A2 *2138:A3 3.51442e-05
19 *2137:A2 *2146:A2 5.39166e-06
20 *2137:A2 *2196:CLK 0.000134738
21 *2148:B *2148:A 0.000484654
22 *2148:B *229:90 0.00027068
23 *100:6 *2245:A 9.86146e-05
24 *100:23 *229:73 0
25 *100:23 *229:90 3.2534e-05
26 *100:34 *2097:A 0
27 *100:34 *124:61 0
28 *100:34 *157:23 0.000168939
29 *100:34 *181:86 0
30 *100:34 *188:10 4.15914e-05
31 *100:34 *222:71 5.66657e-05
32 *100:34 *222:84 0
33 *2101:C *100:23 5.83304e-05
34 *2101:C *100:34 0.000230226
35 *2145:B *2137:A2 0.000265453
36 *2145:C *100:23 7.6644e-05
37 *2216:A *2137:A2 0
38 *93:56 *2148:B 6.79915e-05
*RES
1 *2078:Y *100:6 10.6571 
2 *100:6 *2137:A2 26.5143 
3 *100:6 *100:23 6.14286 
4 *100:23 *2148:B 18.4429 
5 *100:23 *100:34 5.89286 
6 *100:34 *2080:A3 13.8 
7 *100:34 *2120:A2 26.3 
*END

*D_NET *101 0.00982905
*CONN
*I *2122:A2 I *D sky130_fd_sc_hd__o21ai_0
*I *2083:A3 I *D sky130_fd_sc_hd__o31ai_1
*I *2124:A2 I *D sky130_fd_sc_hd__o21ai_0
*I *2086:A3 I *D sky130_fd_sc_hd__o31ai_1
*I *2126:A2 I *D sky130_fd_sc_hd__o21ai_0
*I *2089:C I *D sky130_fd_sc_hd__or3_1
*I *2079:Y O *D sky130_fd_sc_hd__nand2_1
*CAP
1 *2122:A2 0.000471048
2 *2083:A3 7.79631e-05
3 *2124:A2 6.24076e-05
4 *2086:A3 4.53801e-05
5 *2126:A2 0
6 *2089:C 0.000185213
7 *2079:Y 0.00195751
8 *101:20 0.000293408
9 *101:10 0.000270564
10 *101:8 0.000179397
11 *101:6 0.00156443
12 *2083:A3 *2124:B1 4.0342e-06
13 *2089:C *2089:A 9.90367e-05
14 *2089:C *108:10 5.33005e-05
15 *2122:A2 *2079:A 6.05161e-06
16 *2122:A2 *2097:B 0.000338252
17 *2122:A2 *2102:A2 0
18 *2122:A2 *2122:B1 4.06875e-05
19 *2122:A2 *2133:B 0
20 *2122:A2 *114:8 0.000127446
21 *2122:A2 *117:8 0.000350136
22 *2122:A2 *181:100 9.7659e-05
23 *2122:A2 *229:32 5.74499e-06
24 *101:6 *229:30 0.00133548
25 *101:6 *229:32 0.000437193
26 *101:10 *181:30 2.14474e-05
27 *101:20 *181:30 5.33882e-05
28 *2070:C *2124:A2 1.02504e-05
29 *2083:A2 *2083:A3 1.59935e-05
30 *2083:A2 *101:6 0.000230684
31 *2101:C *2122:A2 0.00010946
32 *2114:B *2124:A2 0.000250208
33 *2114:B *101:10 0.000365682
34 *2114:B *101:20 0.00010326
35 *2126:A1 *2089:C 9.61553e-05
36 *2126:A1 *101:20 1.33343e-05
37 *93:12 *2124:A2 0.000238528
38 *93:12 *101:10 0.000318316
*RES
1 *2079:Y *101:6 30.3714 
2 *101:6 *101:8 4.5 
3 *101:8 *101:10 4.67857 
4 *101:10 *101:20 7.23214 
5 *101:20 *2089:C 13.4607 
6 *101:20 *2126:A2 9.3 
7 *101:10 *2086:A3 14.3357 
8 *101:8 *2124:A2 16.9607 
9 *101:6 *2083:A3 10.2464 
10 *2079:Y *2122:A2 38.8143 
*END

*D_NET *102 0.00319798
*CONN
*I *2122:B1 I *D sky130_fd_sc_hd__o21ai_0
*I *2082:A2 I *D sky130_fd_sc_hd__a21oi_1
*I *2080:Y O *D sky130_fd_sc_hd__o31ai_1
*CAP
1 *2122:B1 8.13841e-05
2 *2082:A2 0.000727139
3 *2080:Y 0.000258812
4 *102:6 0.00106733
5 *2082:A2 *2097:A 4.89919e-05
6 *2082:A2 *2097:B 5.52302e-05
7 *2082:A2 *2123:A1 0
8 *2082:A2 *2135:A 0.00018372
9 *2122:B1 *2097:B 1.52978e-05
10 *2122:B1 *179:12 5.52238e-05
11 *102:6 *2123:A1 0.000266479
12 *102:6 *181:100 4.33173e-05
13 *2082:A1 *2082:A2 5.71472e-05
14 *2097:C *2082:A2 7.43578e-06
15 *2097:C *102:6 4.58976e-05
16 *2122:A1 *2122:B1 4.0708e-05
17 *2122:A2 *2122:B1 4.06875e-05
18 *2220:A *2122:B1 0.000123288
19 *2316:A *2082:A2 2.27416e-05
20 *42:178 *2082:A2 5.71472e-05
*RES
1 *2080:Y *102:6 13.9429 
2 *102:6 *2082:A2 21.6929 
3 *102:6 *2122:B1 20.7821 
*END

*D_NET *103 0.000296289
*CONN
*I *2315:A I *D sky130_fd_sc_hd__dlygate4sd3_1
*I *2081:Y O *D sky130_fd_sc_hd__nor2_1
*CAP
1 *2315:A 4.317e-05
2 *2081:Y 4.317e-05
3 *2315:A *2081:A 8.00806e-05
4 *42:178 *2315:A 0.000129868
*RES
1 *2081:Y *2315:A 29.2429 
*END

*D_NET *104 0.0013308
*CONN
*I *2085:A2 I *D sky130_fd_sc_hd__a21oi_1
*I *2124:B1 I *D sky130_fd_sc_hd__o21ai_0
*I *2083:Y O *D sky130_fd_sc_hd__o31ai_1
*CAP
1 *2085:A2 0.000301457
2 *2124:B1 0.000108727
3 *2083:Y 0
4 *104:4 0.000410183
5 *2085:A2 *2083:B1 4.87854e-05
6 *2085:A2 *196:6 0.00021529
7 *2124:B1 *278:21 4.35141e-05
8 *2124:B1 *278:32 1.91512e-05
9 *2083:A3 *2124:B1 4.0342e-06
10 *2114:B *2124:B1 0.000179656
*RES
1 *2083:Y *104:4 9.3 
2 *104:4 *2124:B1 21.0857 
3 *104:4 *2085:A2 14.7821 
*END

*D_NET *105 0.00029515
*CONN
*I *2301:A I *D sky130_fd_sc_hd__dlygate4sd3_1
*I *2084:Y O *D sky130_fd_sc_hd__nor2_1
*CAP
1 *2301:A 7.51885e-05
2 *2084:Y 7.51885e-05
3 *2301:A *2084:B 0.000144773
*RES
1 *2084:Y *2301:A 20.3679 
*END

*D_NET *106 0.0027603
*CONN
*I *2088:A2 I *D sky130_fd_sc_hd__a21oi_1
*I *2126:B1 I *D sky130_fd_sc_hd__o21ai_0
*I *2086:Y O *D sky130_fd_sc_hd__o31ai_1
*CAP
1 *2088:A2 0.000950879
2 *2126:B1 9.79383e-05
3 *2086:Y 0.00104882
4 *2088:A2 *2086:B1 0.00018372
5 *2088:A2 *2189:RESET_B 9.17414e-05
6 *2088:A2 *272:6 5.65955e-05
7 *2088:A2 *277:84 0.000142066
8 *2088:A2 *279:90 1.56e-05
9 *2126:B1 *2086:B1 2.51343e-06
10 *2126:B1 *2127:B2 7.6644e-05
11 *2126:B1 *278:10 2.72449e-05
12 *2114:B *2126:B1 6.65398e-05
*RES
1 *2086:Y *2126:B1 29.7786 
2 *2086:Y *2088:A2 31.2071 
*END

*D_NET *107 0.0015169
*CONN
*I *2307:A I *D sky130_fd_sc_hd__dlygate4sd3_1
*I *2087:Y O *D sky130_fd_sc_hd__nor2_1
*CAP
1 *2307:A 0.000622438
2 *2087:Y 0.000622438
3 *2307:A *2062:B1 0.000226274
4 *2307:A *2087:A 0
5 *2307:A *2088:B1 0
6 *2307:A *2175:D 4.57538e-05
7 *2307:A *2273:A 0
8 *2307:A *2349:A 0
9 *2307:A *281:114 0
*RES
1 *2087:Y *2307:A 37.5107 
*END

*D_NET *108 0.0036999
*CONN
*I *2090:B I *D sky130_fd_sc_hd__nand2_1
*I *2129:A3 I *D sky130_fd_sc_hd__a32oi_1
*I *2089:X O *D sky130_fd_sc_hd__or3_1
*CAP
1 *2090:B 0.000256976
2 *2129:A3 0.000310241
3 *2089:X 0.000636418
4 *108:10 0.00120363
5 *2090:B *2090:A 7.01229e-05
6 *2090:B *2190:RESET_B 0.000179995
7 *2090:B *273:6 0.00010096
8 *2129:A3 *2128:B 3.18676e-05
9 *2129:A3 *2129:A1 5.52238e-05
10 *2129:A3 *2190:CLK 0
11 *2129:A3 *192:8 0
12 *2129:A3 *192:14 0
13 *108:10 *2061:A1 0.000291989
14 *108:10 *2130:B1 0.000267814
15 *108:10 *2224:A 0
16 *108:10 *2341:A 0
17 *108:10 *192:8 0
18 *108:10 *279:73 0
19 *2089:C *108:10 5.33005e-05
20 *2114:B *108:10 0.000174098
21 *2129:A2 *2129:A3 0
22 *2225:A *2129:A3 4.58192e-05
23 *2225:A *108:10 2.14378e-05
*RES
1 *2089:X *108:10 28.1214 
2 *108:10 *2129:A3 18.7821 
3 *108:10 *2090:B 19.4071 
*END

*D_NET *109 0.000400529
*CONN
*I *2092:A2 I *D sky130_fd_sc_hd__a21oi_1
*I *2090:Y O *D sky130_fd_sc_hd__nand2_1
*CAP
1 *2092:A2 0.000114389
2 *2090:Y 0.000114389
3 *2092:A2 *2090:A 6.05161e-06
4 *2092:A2 *2092:B1 3.0285e-05
5 *2092:A2 *178:110 0.000123288
6 *2092:A2 *273:6 1.21258e-05
*RES
1 *2090:Y *2092:A2 29.7786 
*END

*D_NET *110 0.000989197
*CONN
*I *2298:A I *D sky130_fd_sc_hd__dlygate4sd3_1
*I *2091:Y O *D sky130_fd_sc_hd__nor2_1
*CAP
1 *2298:A 0.000424641
2 *2091:Y 0.000424641
3 *2298:A *2091:A 3.67252e-05
4 *2298:A *2091:B 4.85049e-06
5 *2298:A *2369:A 9.83388e-05
6 *2298:A *281:29 0
*RES
1 *2091:Y *2298:A 34.3857 
*END

*D_NET *111 0.000388706
*CONN
*I *2284:A I *D sky130_fd_sc_hd__dlygate4sd3_1
*I *2093:Y O *D sky130_fd_sc_hd__nor2_1
*CAP
1 *2284:A 0.000136272
2 *2093:Y 0.000136272
3 *2284:A *2093:A 6.81773e-05
4 *2284:A *2351:A 0
5 *2284:A *2370:A 4.79842e-05
6 *2284:A *253:10 0
*RES
1 *2093:Y *2284:A 30.1893 
*END

*D_NET *112 0.00077809
*CONN
*I *2095:A2 I *D sky130_fd_sc_hd__o21ai_0
*I *2094:Y O *D sky130_fd_sc_hd__nand2_1
*CAP
1 *2095:A2 0.000207799
2 *2094:Y 0.000207799
3 *2095:A2 *181:127 0.00035246
4 *2095:A2 *270:14 1.0033e-05
*RES
1 *2094:Y *2095:A2 32.1357 
*END

*D_NET *113 0.00211832
*CONN
*I *2131:A I *D sky130_fd_sc_hd__nand2_1
*I *2096:A2 I *D sky130_fd_sc_hd__a21oi_1
*I *2095:Y O *D sky130_fd_sc_hd__o21ai_0
*CAP
1 *2131:A 0
2 *2096:A2 0.000439307
3 *2095:Y 0.000273748
4 *113:8 0.000713055
5 *2096:A2 *2177:D 3.67142e-05
6 *2096:A2 *2178:RESET_B 7.2143e-05
7 *2096:A2 *2191:D 5.107e-05
8 *2096:A2 *2192:RESET_B 5.66971e-05
9 *2096:A2 *2371:A 0
10 *2096:A2 *275:10 0
11 *2096:A2 *282:107 1.67025e-05
12 *2096:A2 *282:109 5.49088e-05
13 *2096:A2 *282:111 7.2527e-05
14 *113:8 *2132:A1 0.000227179
15 *113:8 *2132:B2 1.40034e-05
16 *113:8 *2192:RESET_B 2.97489e-05
17 *2320:A *2096:A2 6.05139e-05
*RES
1 *2095:Y *113:8 14.2643 
2 *113:8 *2096:A2 27.6214 
3 *113:8 *2131:A 9.3 
*END

*D_NET *114 0.00235171
*CONN
*I *2098:A2 I *D sky130_fd_sc_hd__o21ai_0
*I *2131:B I *D sky130_fd_sc_hd__nand2_1
*I *2097:X O *D sky130_fd_sc_hd__or3_1
*CAP
1 *2098:A2 0.000180019
2 *2131:B 5.67477e-05
3 *2097:X 0.000504298
4 *114:8 0.000741065
5 *2098:A2 *2098:A1 0.000100074
6 *2098:A2 *2133:B 0
7 *2098:A2 *2134:A2 1.35553e-05
8 *2098:A2 *2134:B1 0.000227179
9 *2098:A2 *275:10 0.000143887
10 *2131:B *2192:RESET_B 0.000185408
11 *2131:B *275:10 1.84865e-05
12 *114:8 *2133:B 0
13 *114:8 *2173:RESET_B 5.35423e-05
14 *114:8 *282:113 0
15 *2122:A1 *114:8 0
16 *2122:A2 *114:8 0.000127446
*RES
1 *2097:X *114:8 22.7286 
2 *114:8 *2131:B 15.5679 
3 *114:8 *2098:A2 18.8357 
*END

*D_NET *115 0.00193436
*CONN
*I *2133:A I *D sky130_fd_sc_hd__nand2_1
*I *2100:A2 I *D sky130_fd_sc_hd__a21oi_1
*I *2098:Y O *D sky130_fd_sc_hd__o21ai_0
*CAP
1 *2133:A 0.000100648
2 *2100:A2 0.000319795
3 *2098:Y 0.000123583
4 *115:10 0.000544025
5 *2100:A2 *2100:B1 5.66971e-05
6 *2100:A2 *331:10 6.05161e-06
7 *2133:A *2133:B 2.43744e-05
8 *2133:A *2134:B2 7.79481e-05
9 *2133:A *2178:RESET_B 2.89114e-05
10 *2133:A *2289:A 0
11 *2133:A *179:87 9.93863e-05
12 *2133:A *179:96 5.52302e-05
13 *115:10 *2098:B1 5.30196e-05
14 *115:10 *2133:B 6.94441e-06
15 *115:10 *2134:A2 0.000100165
16 *115:10 *2134:B1 5.23822e-05
17 *115:10 *2134:B2 2.37944e-05
18 *115:10 *179:87 0.000103066
19 *115:10 *331:10 8.85967e-05
20 *2290:A *2100:A2 6.9741e-05
*RES
1 *2098:Y *115:10 17.6036 
2 *115:10 *2100:A2 19.675 
3 *115:10 *2133:A 17.1929 
*END

*D_NET *116 0.00146754
*CONN
*I *2289:A I *D sky130_fd_sc_hd__dlygate4sd3_1
*I *2099:Y O *D sky130_fd_sc_hd__nor2_1
*CAP
1 *2289:A 0.000513931
2 *2099:Y 0.000513931
3 *2289:A *2178:D 0.000100823
4 *2289:A *2352:A 0
5 *2289:A *179:87 9.47039e-05
6 *2133:A *2289:A 0
7 *2290:A *2289:A 7.77446e-05
8 *42:204 *2289:A 7.43578e-06
9 *42:215 *2289:A 0.000158971
*RES
1 *2099:Y *2289:A 37.1 
*END

*D_NET *117 0.00384913
*CONN
*I *2133:B I *D sky130_fd_sc_hd__nand2_1
*I *2102:A2 I *D sky130_fd_sc_hd__o21ai_0
*I *2101:X O *D sky130_fd_sc_hd__or3_1
*CAP
1 *2133:B 0.00100847
2 *2102:A2 2.74295e-05
3 *2101:X 0.000439432
4 *117:8 0.00147533
5 *2102:A2 *2097:B 0
6 *2102:A2 *2135:B 2.42082e-05
7 *2133:B *2098:B1 2.39153e-05
8 *2133:B *2134:B2 0.000268767
9 *2133:B *2135:B 4.06875e-05
10 *2133:B *2173:D 0
11 *2133:B *2191:CLK 0
12 *2133:B *2321:A 6.66813e-05
13 *2133:B *2371:A 0
14 *2133:B *179:16 0
15 *2133:B *179:70 0
16 *2133:B *179:74 0
17 *2133:B *179:109 0
18 *2133:B *331:10 9.03222e-06
19 *117:8 *181:100 8.3725e-05
20 *2098:A2 *2133:B 0
21 *2122:A2 *2102:A2 0
22 *2122:A2 *2133:B 0
23 *2122:A2 *117:8 0.000350136
24 *2133:A *2133:B 2.43744e-05
25 *114:8 *2133:B 0
26 *115:10 *2133:B 6.94441e-06
*RES
1 *2101:X *117:8 19.675 
2 *117:8 *2102:A2 14.5321 
3 *117:8 *2133:B 32.7464 
*END

*D_NET *118 0.00349652
*CONN
*I *2135:A I *D sky130_fd_sc_hd__nand2_1
*I *2104:A2 I *D sky130_fd_sc_hd__a21oi_1
*I *2102:Y O *D sky130_fd_sc_hd__o21ai_0
*CAP
1 *2135:A 0.000180945
2 *2104:A2 0.000411709
3 *2102:Y 0.000187636
4 *118:6 0.00078029
5 *2104:A2 *2104:B1 5.71472e-05
6 *2104:A2 *2179:D 0.000252098
7 *2104:A2 *2193:RESET_B 0.000312209
8 *2104:A2 *2215:A 0
9 *2104:A2 *2304:A 0.000441501
10 *2104:A2 *264:28 4.88637e-05
11 *2135:A *2082:B1 0
12 *2135:A *2215:A 1.76135e-05
13 *2135:A *179:16 0.000223592
14 *118:6 *2102:B1 0.000138881
15 *118:6 *2136:A1 9.90431e-05
16 *2082:A2 *2135:A 0.00018372
17 *2103:B *2104:A2 5.65955e-05
18 *2305:A *2104:A2 0
19 *42:101 *2104:A2 0.000104673
*RES
1 *2102:Y *118:6 12.7107 
2 *118:6 *2104:A2 29.425 
3 *118:6 *2135:A 22.925 
*END

*D_NET *119 0.00127093
*CONN
*I *2304:A I *D sky130_fd_sc_hd__dlygate4sd3_1
*I *2103:Y O *D sky130_fd_sc_hd__nor2_1
*CAP
1 *2304:A 0.000105213
2 *2103:Y 0.000105213
3 *2304:A *264:28 0.00057167
4 *2103:B *2304:A 4.73286e-05
5 *2104:A2 *2304:A 0.000441501
*RES
1 *2103:Y *2304:A 24.0643 
*END

*D_NET *120 0.00384363
*CONN
*I *2135:B I *D sky130_fd_sc_hd__nand2_1
*I *2106:A2 I *D sky130_fd_sc_hd__o21ai_0
*I *2105:Y O *D sky130_fd_sc_hd__nand4b_1
*CAP
1 *2135:B 0.000333527
2 *2106:A2 0.000203196
3 *2105:Y 0.000733032
4 *120:10 0.00126975
5 *2106:A2 *2106:A1 0
6 *2106:A2 *2108:A2 5.50052e-05
7 *2106:A2 *2136:B2 8.49318e-05
8 *2106:A2 *2137:B1 8.69355e-05
9 *2106:A2 *2139:A2 7.63486e-05
10 *2135:B *2097:B 0
11 *2135:B *2106:A1 0
12 *2135:B *2136:B2 0.000645455
13 *2135:B *179:16 0
14 *120:10 *2105:B 3.99614e-06
15 *120:10 *2137:A1 0.000137437
16 *120:10 *124:31 0.000149115
17 *2102:A2 *2135:B 2.42082e-05
18 *2133:B *2135:B 4.06875e-05
*RES
1 *2105:Y *120:10 23.2821 
2 *120:10 *2106:A2 18.3179 
3 *120:10 *2135:B 22.7286 
*END

*D_NET *121 0.00286094
*CONN
*I *2137:B1 I *D sky130_fd_sc_hd__o21ai_0
*I *2108:A2 I *D sky130_fd_sc_hd__a21oi_1
*I *2106:Y O *D sky130_fd_sc_hd__o21ai_0
*CAP
1 *2137:B1 0.000208571
2 *2108:A2 0.000433561
3 *2106:Y 0
4 *121:4 0.000642131
5 *2108:A2 *2295:A 0.000435806
6 *2108:A2 *125:41 0.000181906
7 *2108:A2 *282:202 5.26097e-05
8 *2137:B1 *2106:A1 0
9 *2137:B1 *2138:A3 0.000172495
10 *2137:B1 *2196:RESET_B 1.32293e-05
11 *2137:B1 *125:41 0.000400145
12 *2106:A2 *2108:A2 5.50052e-05
13 *2106:A2 *2137:B1 8.69355e-05
14 *2107:B *2108:A2 0.000128759
15 *2216:A *2137:B1 0
16 *42:97 *2108:A2 4.97876e-05
*RES
1 *2106:Y *121:4 9.3 
2 *121:4 *2108:A2 28.5857 
3 *121:4 *2137:B1 24.3714 
*END

*D_NET *122 0.00163225
*CONN
*I *2295:A I *D sky130_fd_sc_hd__dlygate4sd3_1
*I *2107:Y O *D sky130_fd_sc_hd__nor2_1
*CAP
1 *2295:A 0.000498936
2 *2107:Y 0.000498936
3 *2295:A *2107:A 2.85321e-05
4 *2295:A *2136:A1 0
5 *2295:A *2180:CLK 0.000127781
6 *2295:A *125:41 0
7 *2107:B *2295:A 4.22609e-05
8 *2108:A2 *2295:A 0.000435806
*RES
1 *2107:Y *2295:A 35.1179 
*END

*D_NET *123 0.000817695
*CONN
*I *2138:B1 I *D sky130_fd_sc_hd__a311oi_1
*I *2112:B I *D sky130_fd_sc_hd__or2_0
*I *2111:Y O *D sky130_fd_sc_hd__a21boi_0
*CAP
1 *2138:B1 0.000202398
2 *2112:B 0
3 *2111:Y 8.01745e-05
4 *123:8 0.000282573
5 *2138:B1 *2111:B1_N 4.38128e-05
6 *2138:B1 *2138:A3 8.25098e-05
7 *2138:B1 *2139:B1 1.02504e-05
8 *2138:B1 *124:14 0
9 *2138:B1 *165:27 9.25014e-06
10 *123:8 *2111:A1 5.7661e-06
11 *123:8 *2111:B1_N 0.00010096
12 *2138:A2 *2138:B1 0
*RES
1 *2111:Y *123:8 11.0857 
2 *123:8 *2112:B 9.3 
3 *123:8 *2138:B1 21.9964 
*END

*D_NET *124 0.0139753
*CONN
*I *2134:A2 I *D sky130_fd_sc_hd__a22o_1
*I *2132:A2 I *D sky130_fd_sc_hd__a22o_1
*I *2121:A2 I *D sky130_fd_sc_hd__a22o_1
*I *2123:A2 I *D sky130_fd_sc_hd__a22o_1
*I *2139:A2 I *D sky130_fd_sc_hd__a21oi_1
*I *2136:A2 I *D sky130_fd_sc_hd__a22o_1
*I *2339:A I *D sky130_fd_sc_hd__buf_4
*I *2112:X O *D sky130_fd_sc_hd__or2_0
*CAP
1 *2134:A2 0.000777281
2 *2132:A2 0
3 *2121:A2 0.000712646
4 *2123:A2 5.53044e-05
5 *2139:A2 0.000303012
6 *2136:A2 9.83637e-05
7 *2339:A 1.16151e-05
8 *2112:X 0.000176085
9 *124:93 0.000828955
10 *124:76 0.00101932
11 *124:61 0.000647248
12 *124:31 0.000761827
13 *124:25 0.00107203
14 *124:14 0.000562332
15 *2121:A2 *276:25 2.06112e-05
16 *2121:A2 *276:33 0.00121876
17 *2134:A2 *2098:A1 0.000563607
18 *2134:A2 *2134:A1 0.000315806
19 *2134:A2 *2134:B1 0.000497316
20 *2134:A2 *179:87 3.40858e-05
21 *2134:A2 *282:111 0.000138425
22 *2139:A2 *2106:B1 6.74651e-05
23 *2139:A2 *2136:A1 1.41029e-05
24 *2139:A2 *2136:B2 9.25014e-06
25 *2139:A2 *2180:D 2.29112e-05
26 *2139:A2 *125:41 0.000100458
27 *2339:A *2138:A1 5.52302e-05
28 *2339:A *2138:C1 5.52238e-05
29 *124:14 *2140:C 0.00010096
30 *124:14 *219:33 1.73501e-05
31 *124:25 *2138:A3 0
32 *124:25 *2196:CLK 7.32511e-05
33 *124:25 *2196:D 0.000127939
34 *124:25 *219:33 0.000321077
35 *124:31 *2137:A1 7.32272e-05
36 *124:61 *2097:A 3.52562e-05
37 *124:61 *2123:B1 1.856e-05
38 *124:61 *2137:A1 1.00375e-05
39 *124:61 *2148:A 9.97648e-05
40 *124:61 *2196:CLK 0.000135325
41 *124:61 *157:36 5.75896e-05
42 *124:61 *219:33 0.000131491
43 *124:76 *2123:B1 0.000533151
44 *124:76 *2187:D 0
45 *124:76 *2187:RESET_B 5.83233e-05
46 *124:76 *276:46 4.77305e-05
47 *124:76 *282:113 0.000214815
48 *124:93 *2134:B1 2.45012e-05
49 *124:93 *276:46 0.000136351
50 *124:93 *282:111 3.29297e-05
51 *124:93 *282:113 0.000126312
52 *2077:A2 *2121:A2 2.06112e-05
53 *2098:A2 *2134:A2 1.35553e-05
54 *2106:A2 *2139:A2 7.63486e-05
55 *2122:A1 *2123:A2 4.53834e-05
56 *2122:A1 *124:76 6.47136e-05
57 *2138:A2 *124:14 0.000101545
58 *2138:B1 *124:14 0
59 *2145:B *124:61 0.000234817
60 *2216:A *2136:A2 5.29076e-05
61 *2216:A *124:31 0.000354111
62 *2322:A *2134:A2 9.67754e-05
63 *4:10 *2121:A2 0
64 *42:191 *2134:A2 0
65 *88:26 *2123:A2 9.25014e-06
66 *88:26 *124:61 0.000140807
67 *100:34 *124:61 0
68 *115:10 *2134:A2 0.000100165
69 *120:10 *124:31 0.000149115
*RES
1 *2112:X *124:14 17.3536 
2 *124:14 *2339:A 14.3357 
3 *124:14 *124:25 9.53571 
4 *124:25 *124:31 12.4464 
5 *124:31 *2136:A2 11.7643 
6 *124:31 *2139:A2 24.6393 
7 *124:25 *124:61 10.5982 
8 *124:61 *2123:A2 14.9161 
9 *124:61 *124:76 7.94643 
10 *124:76 *2121:A2 22.9617 
11 *124:76 *124:93 2.09821 
12 *124:93 *2132:A2 13.8 
13 *124:93 *2134:A2 37.5321 
*END

*D_NET *125 0.00886286
*CONN
*I *2136:B1 I *D sky130_fd_sc_hd__a22o_1
*I *2338:A I *D sky130_fd_sc_hd__clkbuf_2
*I *2113:Y O *D sky130_fd_sc_hd__nor3b_1
*CAP
1 *2136:B1 0
2 *2338:A 0.000262205
3 *2113:Y 0.000425474
4 *125:41 0.0018296
5 *125:14 0.00251728
6 *2338:A *2257:A 0.000190848
7 *125:14 *2042:A 5.58941e-05
8 *125:14 *2051:B 1.34737e-05
9 *125:14 *2129:B1 0.000212496
10 *125:14 *2247:A 0.000236717
11 *125:14 *159:38 0.000187956
12 *125:14 *161:8 0.000200638
13 *125:14 *162:14 0
14 *125:41 *2041:A 0.000751587
15 *125:41 *2136:A1 1.02504e-05
16 *125:41 *2146:B1 9.41642e-05
17 *125:41 *2196:RESET_B 0.000469988
18 *125:41 *2244:A 9.11048e-06
19 *125:41 *161:8 0.000313568
20 *125:41 *213:8 0.000180202
21 *125:41 *222:16 1.6271e-05
22 *125:41 *222:37 2.98459e-05
23 *125:41 *282:409 7.66886e-05
24 *2108:A2 *125:41 0.000181906
25 *2129:A2 *125:14 9.60939e-05
26 *2137:B1 *125:41 0.000400145
27 *2139:A2 *125:41 0.000100458
28 *2295:A *125:41 0
*RES
1 *2113:Y *125:14 24.4429 
2 *125:14 *2338:A 18.4429 
3 *125:14 *125:41 48.8214 
4 *125:41 *2136:B1 13.8 
*END

*D_NET *126 0.000660122
*CONN
*I *2115:B2 I *D sky130_fd_sc_hd__a22o_1
*I *2114:Y O *D sky130_fd_sc_hd__nand2_1
*CAP
1 *2115:B2 0.000148265
2 *2114:Y 0.000148265
3 *2115:B2 *278:10 0.000100248
4 *2115:B2 *279:73 1.00887e-05
5 *2115:B2 *279:90 0.000113924
6 *2114:A *2115:B2 0.000139331
*RES
1 *2114:Y *2115:B2 30.6 
*END

*D_NET *127 0.000466966
*CONN
*I *2117:B2 I *D sky130_fd_sc_hd__a22o_1
*I *2116:Y O *D sky130_fd_sc_hd__nand2_1
*CAP
1 *2117:B2 0.000108626
2 *2116:Y 0.000108626
3 *2117:B2 *2119:A2 9.2815e-05
4 *2117:B2 *2186:RESET_B 6.05161e-06
5 *2117:B2 *2337:A 5.23735e-05
6 *2117:B2 *276:12 9.84729e-05
*RES
1 *2116:Y *2117:B2 21.6179 
*END

*D_NET *128 0.00023694
*CONN
*I *2119:B2 I *D sky130_fd_sc_hd__a22o_1
*I *2118:Y O *D sky130_fd_sc_hd__nand2_1
*CAP
1 *2119:B2 5.73056e-05
2 *2118:Y 5.73056e-05
3 *2119:B2 *276:25 0.000101327
4 *2118:A *2119:B2 2.10019e-05
*RES
1 *2118:Y *2119:B2 19.975 
*END

*D_NET *129 0.000265226
*CONN
*I *2121:B2 I *D sky130_fd_sc_hd__a22o_1
*I *2120:Y O *D sky130_fd_sc_hd__o21ai_0
*CAP
1 *2121:B2 6.98007e-05
2 *2120:Y 6.98007e-05
3 *2121:B2 *2121:B1 1.73088e-05
4 *2121:B2 *161:54 9.77423e-05
5 *2120:A2 *2121:B2 1.05731e-05
*RES
1 *2120:Y *2121:B2 20.2786 
*END

*D_NET *130 0.00129729
*CONN
*I *2123:B2 I *D sky130_fd_sc_hd__a22o_1
*I *2122:Y O *D sky130_fd_sc_hd__o21ai_0
*CAP
1 *2123:B2 0.000355195
2 *2122:Y 0.000355195
3 *2123:B2 *2123:B1 0.000146474
4 *2123:B2 *179:12 0.000390987
5 *2123:B2 *188:10 4.94362e-05
*RES
1 *2122:Y *2123:B2 33.3679 
*END

*D_NET *131 0.000125883
*CONN
*I *2125:B2 I *D sky130_fd_sc_hd__a22o_1
*I *2124:Y O *D sky130_fd_sc_hd__o21ai_0
*CAP
1 *2125:B2 5.59207e-05
2 *2124:Y 5.59207e-05
3 *2065:A2 *2125:B2 1.40415e-05
*RES
1 *2124:Y *2125:B2 19.5643 
*END

*D_NET *132 0.000529067
*CONN
*I *2127:B2 I *D sky130_fd_sc_hd__a22o_1
*I *2126:Y O *D sky130_fd_sc_hd__o21ai_0
*CAP
1 *2127:B2 0.000136213
2 *2126:Y 0.000136213
3 *2127:B2 *278:10 0.000153047
4 *2114:B *2127:B2 2.6949e-05
5 *2126:B1 *2127:B2 7.6644e-05
*RES
1 *2126:Y *2127:B2 30.4929 
*END

*D_NET *133 0.00157078
*CONN
*I *2224:A I *D sky130_fd_sc_hd__dlygate4sd3_1
*I *2128:Y O *D sky130_fd_sc_hd__nand2_1
*CAP
1 *2224:A 0.000493509
2 *2128:Y 0.000493509
3 *2224:A *2092:A1 0
4 *2224:A *2129:A1 1.33343e-05
5 *2224:A *2190:RESET_B 0
6 *2224:A *192:8 0.00020042
7 *2224:A *192:14 0.000304177
8 *2224:A *279:73 6.58289e-05
9 *108:10 *2224:A 0
*RES
1 *2128:Y *2224:A 36.6893 
*END

*D_NET *134 0.000830901
*CONN
*I *2130:A3 I *D sky130_fd_sc_hd__o31ai_1
*I *2129:Y O *D sky130_fd_sc_hd__a32oi_1
*CAP
1 *2130:A3 0.00020316
2 *2129:Y 0.00020316
3 *2130:A3 *2128:B 0.000125731
4 *2130:A3 *2129:B1 2.95726e-05
5 *2130:A3 *2129:B2 0.00014183
6 *2130:A3 *280:16 0.000127446
*RES
1 *2129:Y *2130:A3 31.4214 
*END

*D_NET *135 0.000701964
*CONN
*I *2132:B2 I *D sky130_fd_sc_hd__a22o_1
*I *2131:Y O *D sky130_fd_sc_hd__nand2_1
*CAP
1 *2132:B2 0.000267554
2 *2131:Y 0.000267554
3 *2132:B2 *2132:A1 5.4386e-05
4 *2132:B2 *2192:RESET_B 9.84673e-05
5 *113:8 *2132:B2 1.40034e-05
*RES
1 *2131:Y *2132:B2 22.3321 
*END

*D_NET *136 0.00244991
*CONN
*I *2134:B2 I *D sky130_fd_sc_hd__a22o_1
*I *2133:Y O *D sky130_fd_sc_hd__nand2_1
*CAP
1 *2134:B2 0.000641725
2 *2133:Y 0.000641725
3 *2134:B2 *2134:A1 0.000571411
4 *2134:B2 *2134:B1 4.70548e-05
5 *2134:B2 *331:10 7.58841e-05
6 *2133:A *2134:B2 7.79481e-05
7 *2133:B *2134:B2 0.000268767
8 *4:10 *2134:B2 0.000101601
9 *115:10 *2134:B2 2.37944e-05
*RES
1 *2133:Y *2134:B2 38.9036 
*END

*D_NET *137 0.00153113
*CONN
*I *2136:B2 I *D sky130_fd_sc_hd__a22o_1
*I *2135:Y O *D sky130_fd_sc_hd__nand2_1
*CAP
1 *2136:B2 0.00025951
2 *2135:Y 0.00025951
3 *2136:B2 *2136:A1 0.000144332
4 *2136:B2 *2268:A 0.000128146
5 *2136:B2 *179:16 0
6 *2106:A2 *2136:B2 8.49318e-05
7 *2135:B *2136:B2 0.000645455
8 *2139:A2 *2136:B2 9.25014e-06
*RES
1 *2135:Y *2136:B2 36.8321 
*END

*D_NET *138 0.00190297
*CONN
*I *2138:A3 I *D sky130_fd_sc_hd__a311oi_1
*I *2137:Y O *D sky130_fd_sc_hd__o21ai_0
*CAP
1 *2138:A3 0.000447049
2 *2137:Y 0.000447049
3 *2138:A3 *2138:A1 0.00010096
4 *2138:A3 *2138:C1 0.000142856
5 *2138:A3 *2139:B1 9.48453e-05
6 *2138:A3 *2196:CLK 6.2295e-05
7 *2138:A3 *2196:RESET_B 0.000317769
8 *2137:A2 *2138:A3 3.51442e-05
9 *2137:B1 *2138:A3 0.000172495
10 *2138:B1 *2138:A3 8.25098e-05
11 *2216:A *2138:A3 0
12 *124:25 *2138:A3 0
*RES
1 *2137:Y *2138:A3 39.4036 
*END

*D_NET *139 0.0008436
*CONN
*I *2139:B1 I *D sky130_fd_sc_hd__a21oi_1
*I *2138:Y O *D sky130_fd_sc_hd__a311oi_1
*CAP
1 *2139:B1 0.000319128
2 *2138:Y 0.000319128
3 *2139:B1 *2139:A1 0
4 *2139:B1 *2196:RESET_B 0.000100248
5 *2138:A3 *2139:B1 9.48453e-05
6 *2138:B1 *2139:B1 1.02504e-05
*RES
1 *2138:Y *2139:B1 33.5464 
*END

*D_NET *140 0.00528659
*CONN
*I *2144:B I *D sky130_fd_sc_hd__nor2_1
*I *2147:A2 I *D sky130_fd_sc_hd__a21oi_1
*I *2149:A1 I *D sky130_fd_sc_hd__a21oi_1
*I *2142:B1 I *D sky130_fd_sc_hd__o21ai_0
*I *2143:A2 I *D sky130_fd_sc_hd__o22a_1
*I *2150:B1 I *D sky130_fd_sc_hd__o21ai_0
*I *2140:Y O *D sky130_fd_sc_hd__nor3_1
*CAP
1 *2144:B 0.000158756
2 *2147:A2 0
3 *2149:A1 7.31561e-05
4 *2142:B1 0.000188283
5 *2143:A2 0
6 *2150:B1 3.29467e-05
7 *2140:Y 0.000184904
8 *140:62 0.000669917
9 *140:43 0.000914307
10 *140:26 0.000547046
11 *140:19 0.000214937
12 *140:6 0.000404016
13 *2142:B1 *2143:B1 4.96628e-05
14 *2142:B1 *2143:B2 4.82357e-05
15 *2142:B1 *159:8 1.54191e-06
16 *2144:B *2078:B 1.10494e-05
17 *2144:B *2105:A_N 3.27526e-05
18 *2144:B *2147:B1 3.65737e-06
19 *2144:B *2149:B1 9.83442e-05
20 *2144:B *2245:A 4.58194e-05
21 *2144:B *160:14 5.37741e-06
22 *2144:B *229:90 2.16833e-05
23 *2149:A1 *2149:B1 9.83442e-05
24 *2150:B1 *2150:A2 5.04841e-06
25 *140:6 *2140:A 2.89114e-05
26 *140:6 *2151:B1 3.0658e-05
27 *140:19 *2143:A1 1.34282e-05
28 *140:19 *2151:B1 3.13209e-06
29 *140:43 *2143:A1 0
30 *140:43 *2143:B2 3.47641e-06
31 *140:43 *2195:D 6.45537e-05
32 *140:43 *219:16 0
33 *140:43 *222:16 0.000586932
34 *140:62 *2069:A_N 6.05161e-06
35 *140:62 *2105:A_N 2.89791e-06
36 *140:62 *2149:B1 0.00013723
37 *140:62 *2245:A 5.74499e-06
38 *140:62 *160:14 3.52311e-05
39 *140:62 *222:16 0.000185305
40 *140:62 *222:37 0.000145119
41 *140:62 *222:58 0.000191403
42 *2249:A *2149:A1 3.67252e-05
43 *4:10 *140:43 0
*RES
1 *2140:Y *140:6 11.4786 
2 *140:6 *2150:B1 10.0321 
3 *140:6 *140:19 2.73214 
4 *140:19 *2143:A2 9.3 
5 *140:19 *140:26 0.535714 
6 *140:26 *2142:B1 12.6705 
7 *140:26 *140:43 12.2143 
8 *140:43 *2149:A1 15.5679 
9 *140:43 *140:62 18.6071 
10 *140:62 *2147:A2 13.8 
11 *140:62 *2144:B 16.9786 
*END

*D_NET *141 0.000252874
*CONN
*I *2146:A1 I *D sky130_fd_sc_hd__a21oi_1
*I *2141:Y O *D sky130_fd_sc_hd__nor3_1
*CAP
1 *2146:A1 8.76472e-05
2 *2141:Y 8.76472e-05
3 *2146:A1 *2146:A2 1.00887e-05
4 *2146:A1 *177:109 6.74911e-05
5 *2146:A1 *219:33 0
6 *2146:A1 *222:16 0
*RES
1 *2141:Y *2146:A1 29.5464 
*END

*D_NET *142 0.00028645
*CONN
*I *2143:B1 I *D sky130_fd_sc_hd__o22a_1
*I *2142:Y O *D sky130_fd_sc_hd__o21ai_0
*CAP
1 *2143:B1 7.59682e-05
2 *2142:Y 7.59682e-05
3 *2143:B1 *2143:B2 2.82558e-05
4 *2142:B1 *2143:B1 4.96628e-05
5 *2243:A *2143:B1 5.65955e-05
*RES
1 *2142:Y *2143:B1 20.9259 
*END

*D_NET *143 0.00364175
*CONN
*I *2245:A I *D sky130_fd_sc_hd__dlygate4sd3_1
*I *2144:Y O *D sky130_fd_sc_hd__nor2_1
*CAP
1 *2245:A 0.000538057
2 *2144:Y 0.000538057
3 *2245:A *2041:A 0.00026454
4 *2245:A *2069:A_N 0.000169844
5 *2245:A *2069:B 0.000497129
6 *2245:A *2078:B 4.35597e-05
7 *2245:A *2149:B1 3.53385e-05
8 *2245:A *2197:D 5.52238e-05
9 *2245:A *2197:RESET_B 4.66203e-05
10 *2245:A *160:14 5.49489e-05
11 *2245:A *175:47 1.37292e-05
12 *2245:A *213:58 0.000172672
13 *2245:A *282:409 0.00026454
14 *2144:B *2245:A 4.58194e-05
15 *2249:A *2245:A 0.000354826
16 *93:56 *2245:A 0.000442482
17 *100:6 *2245:A 9.86146e-05
18 *140:62 *2245:A 5.74499e-06
*RES
1 *2144:Y *2245:A 44.6357 
*END

*D_NET *144 0.00129447
*CONN
*I *2146:A2 I *D sky130_fd_sc_hd__a21oi_1
*I *2145:Y O *D sky130_fd_sc_hd__nand3_1
*CAP
1 *2146:A2 0.000436023
2 *2145:Y 0.000436023
3 *2146:A2 *2105:C 8.25098e-05
4 *2146:A2 *2137:A1 0
5 *2146:A2 *2144:A 9.30022e-05
6 *2146:A2 *2149:B1 0.000201338
7 *2146:A2 *219:33 0
8 *2137:A2 *2146:A2 5.39166e-06
9 *2146:A1 *2146:A2 1.00887e-05
10 *2246:A *2146:A2 3.0089e-05
*RES
1 *2145:Y *2146:A2 37.0643 
*END

*D_NET *145 0.00263339
*CONN
*I *2149:B1 I *D sky130_fd_sc_hd__a21oi_1
*I *2147:Y O *D sky130_fd_sc_hd__a21oi_1
*CAP
1 *2149:B1 0.000765794
2 *2147:Y 0.000765794
3 *2149:B1 *2078:B 9.74665e-05
4 *2149:B1 *2105:A_N 0.00017309
5 *2149:B1 *2105:C 7.83587e-05
6 *2149:B1 *2144:A 0.000128161
7 *2149:B1 *2244:A 0
8 *2149:B1 *160:14 2.12005e-05
9 *2144:B *2149:B1 9.83442e-05
10 *2146:A2 *2149:B1 0.000201338
11 *2149:A1 *2149:B1 9.83442e-05
12 *2245:A *2149:B1 3.53385e-05
13 *2246:A *2149:B1 3.29297e-05
14 *140:62 *2149:B1 0.00013723
*RES
1 *2147:Y *2149:B1 43.0643 
*END

*D_NET *146 0.00139503
*CONN
*I *2248:A I *D sky130_fd_sc_hd__dlygate4sd3_1
*I *2148:Y O *D sky130_fd_sc_hd__nand2_1
*CAP
1 *2248:A 0.000371056
2 *2148:Y 0.000371056
3 *2248:A *2105:B 0.000226513
4 *2248:A *2148:A 4.50349e-06
5 *2248:A *2197:CLK 3.27117e-05
6 *2248:A *216:30 0.000224596
7 *4:10 *2248:A 0.000161946
8 *88:18 *2248:A 2.64262e-06
*RES
1 *2148:Y *2248:A 35.2071 
*END

*D_NET *147 0.00171647
*CONN
*I *2151:B1 I *D sky130_fd_sc_hd__a32o_1
*I *2150:Y O *D sky130_fd_sc_hd__o21ai_0
*CAP
1 *2151:B1 0.000354997
2 *2150:Y 0.000354997
3 *2151:B1 *2043:A 0.000113536
4 *2151:B1 *2141:B 4.46186e-06
5 *2151:B1 *2143:B2 0.000148911
6 *2151:B1 *177:99 0
7 *2151:B1 *177:109 0.000407934
8 *2151:B1 *207:48 1.02504e-05
9 *2151:B1 *207:57 0.000250201
10 *2151:B1 *282:351 2.57162e-05
11 *2057:C1 *2151:B1 1.1671e-05
12 *140:6 *2151:B1 3.0658e-05
13 *140:19 *2151:B1 3.13209e-06
*RES
1 *2150:Y *2151:B1 37.2161 
*END

*D_NET *148 0.00436647
*CONN
*I *2158:C I *D sky130_fd_sc_hd__nand3_1
*I *2163:B2 I *D sky130_fd_sc_hd__o22a_1
*I *2161:A2 I *D sky130_fd_sc_hd__a21oi_1
*I *2154:A2 I *D sky130_fd_sc_hd__a21bo_1
*I *2153:C I *D sky130_fd_sc_hd__nand3_1
*I *2160:A I *D sky130_fd_sc_hd__nor2_1
*I *2152:X O *D sky130_fd_sc_hd__or2_0
*CAP
1 *2158:C 0.000137295
2 *2163:B2 0.000187723
3 *2161:A2 0
4 *2154:A2 7.37816e-05
5 *2153:C 0
6 *2160:A 3.18784e-05
7 *2152:X 0.000121557
8 *148:50 0.000341586
9 *148:43 1.65676e-05
10 *148:20 0.000248069
11 *148:14 0.000388296
12 *148:10 0.000219881
13 *2154:A2 *2154:A1 0.000178503
14 *2154:A2 *2252:A 5.33005e-05
15 *2154:A2 *150:14 1.8366e-05
16 *2158:C *2046:B 5.23139e-05
17 *2158:C *2156:A 0.000188586
18 *2158:C *2156:B 5.52238e-05
19 *2158:C *2161:A1 5.33005e-05
20 *2158:C *164:10 0.000232399
21 *2158:C *203:29 0.000125392
22 *2163:B2 *2046:B 9.15291e-05
23 *2163:B2 *2161:A1 5.52238e-05
24 *2163:B2 *2163:A1 3.99614e-06
25 *2163:B2 *327:21 2.89114e-05
26 *148:10 *2161:A1 5.58941e-05
27 *148:10 *164:10 0
28 *148:10 *177:18 7.48356e-05
29 *148:14 *2161:A1 3.32442e-05
30 *148:14 *151:10 0.000125352
31 *148:14 *177:18 0.000188453
32 *148:20 *2153:A 7.75083e-06
33 *148:20 *2153:B 1.86547e-05
34 *148:20 *2160:B 0.000363231
35 *148:20 *2161:B1 4.82426e-05
36 *148:20 *151:10 0.000159937
37 *148:20 *177:18 0.000191337
38 *148:20 *177:22 0.000195856
39 *148:50 *2163:A1 0
*RES
1 *2152:X *148:10 16.2821 
2 *148:10 *148:14 3.08929 
3 *148:14 *148:20 12.0357 
4 *148:20 *2160:A 9.83571 
5 *148:20 *2153:C 9.3 
6 *148:14 *2154:A2 15.5679 
7 *148:10 *148:43 4.5 
8 *148:43 *2161:A2 9.3 
9 *148:43 *148:50 0.428571 
10 *148:50 *2163:B2 12.7286 
11 *148:50 *2158:C 13.9429 
*END

*D_NET *149 0.000413301
*CONN
*I *2155:B1 I *D sky130_fd_sc_hd__o21ai_0
*I *2153:Y O *D sky130_fd_sc_hd__nand3_1
*CAP
1 *2155:B1 9.8012e-05
2 *2153:Y 9.8012e-05
3 *2155:B1 *2153:A 1.07719e-05
4 *2155:B1 *2155:A2 0.000128146
5 *2155:B1 *2159:A2 7.83587e-05
6 *2155:B1 *198:14 0
*RES
1 *2153:Y *2155:B1 29.7786 
*END

*D_NET *150 0.0023517
*CONN
*I *2159:A1 I *D sky130_fd_sc_hd__o21ai_0
*I *2155:A2 I *D sky130_fd_sc_hd__o21ai_0
*I *2154:X O *D sky130_fd_sc_hd__a21bo_1
*CAP
1 *2159:A1 0
2 *2155:A2 0.000155314
3 *2154:X 0.000398236
4 *150:14 0.00055355
5 *2155:A2 *2159:A2 4.99961e-05
6 *2155:A2 *2159:B1 5.90443e-06
7 *150:14 *2153:B 0.000101388
8 *150:14 *2154:A1 2.69219e-05
9 *150:14 *2159:B1 0.000268658
10 *150:14 *2160:B 5.92778e-05
11 *150:14 *2252:A 2.59355e-05
12 *150:14 *2317:A 0.000201814
13 *150:14 *151:10 6.93626e-06
14 *150:14 *280:55 2.97489e-05
15 *2154:A2 *150:14 1.8366e-05
16 *2155:B1 *2155:A2 0.000128146
17 *2229:A *2155:A2 0.000286591
18 *2229:A *150:14 3.49119e-05
*RES
1 *2154:X *150:14 23.7464 
2 *150:14 *2155:A2 18.55 
3 *150:14 *2159:A1 13.8 
*END

*D_NET *151 0.00254365
*CONN
*I *2162:A2 I *D sky130_fd_sc_hd__a21boi_0
*I *2160:B I *D sky130_fd_sc_hd__nor2_1
*I *2156:Y O *D sky130_fd_sc_hd__nor2_1
*CAP
1 *2162:A2 0.000166621
2 *2160:B 0.000264109
3 *2156:Y 0.000196385
4 *151:10 0.000627115
5 *2160:B *2161:B1 2.89016e-05
6 *2160:B *2317:A 2.71964e-05
7 *2162:A2 *2162:A1 5.66971e-05
8 *2162:A2 *2164:CLK 9.41642e-05
9 *151:10 *2046:B 4.87953e-05
10 *151:10 *2161:A1 0.000101388
11 *151:10 *2317:A 5.09999e-05
12 *2229:A *2160:B 0.000166539
13 *148:14 *151:10 0.000125352
14 *148:20 *2160:B 0.000363231
15 *148:20 *151:10 0.000159937
16 *150:14 *2160:B 5.92778e-05
17 *150:14 *151:10 6.93626e-06
*RES
1 *2156:Y *151:10 18.5143 
2 *151:10 *2160:B 21.1036 
3 *151:10 *2162:A2 16.3893 
*END

*D_NET *152 0.000683672
*CONN
*I *2159:A2 I *D sky130_fd_sc_hd__o21ai_0
*I *2157:X O *D sky130_fd_sc_hd__xor2_1
*CAP
1 *2159:A2 0.000230625
2 *2157:X 0.000230625
3 *2159:A2 *2155:A1 7.77652e-05
4 *2159:A2 *2157:B 6.05161e-06
5 *2159:A2 *2159:B1 1.02504e-05
6 *2159:A2 *198:14 0
7 *2155:A2 *2159:A2 4.99961e-05
8 *2155:B1 *2159:A2 7.83587e-05
*RES
1 *2157:X *2159:A2 31.4214 
*END

*D_NET *153 0.00028427
*CONN
*I *2234:A I *D sky130_fd_sc_hd__dlygate4sd3_1
*I *2158:Y O *D sky130_fd_sc_hd__nand3_1
*CAP
1 *2234:A 7.5333e-05
2 *2158:Y 7.5333e-05
3 *2234:A *2158:B 0.000100681
4 *2234:A *280:51 3.2923e-05
*RES
1 *2158:Y *2234:A 29.2429 
*END

*D_NET *154 0.00169409
*CONN
*I *2161:B1 I *D sky130_fd_sc_hd__a21oi_1
*I *2160:Y O *D sky130_fd_sc_hd__nor2_1
*CAP
1 *2161:B1 0.000421035
2 *2160:Y 0.000421035
3 *2161:B1 *2054:A 0
4 *2161:B1 *2163:B1 0
5 *2161:B1 *2252:A 0.000316895
6 *2161:B1 *177:18 0.000196236
7 *2161:B1 *177:22 2.4741e-05
8 *2161:B1 *327:21 0.000237005
9 *2160:B *2161:B1 2.89016e-05
10 *148:20 *2161:B1 4.82426e-05
*RES
1 *2160:Y *2161:B1 38.0286 
*END

*D_NET *155 0.000200102
*CONN
*I *2163:A2 I *D sky130_fd_sc_hd__o22a_1
*I *2161:Y O *D sky130_fd_sc_hd__a21oi_1
*CAP
1 *2163:A2 7.48623e-05
2 *2161:Y 7.48623e-05
3 *2163:A2 *2046:B 2.14658e-05
4 *2163:A2 *327:21 2.89114e-05
*RES
1 *2161:Y *2163:A2 19.5464 
*END

*D_NET *156 0.000576116
*CONN
*I *2163:B1 I *D sky130_fd_sc_hd__o22a_1
*I *2162:Y O *D sky130_fd_sc_hd__a21boi_0
*CAP
1 *2163:B1 0.000137054
2 *2162:Y 0.000137054
3 *2163:B1 *2162:B1_N 3.9733e-05
4 *2163:B1 *207:10 0.000148191
5 *2163:B1 *327:21 0.000114084
6 *2161:B1 *2163:B1 0
*RES
1 *2162:Y *2163:B1 31.975 
*END

*D_NET *157 0.00384441
*CONN
*I *2097:A I *D sky130_fd_sc_hd__or3_1
*I *2101:A I *D sky130_fd_sc_hd__or3_1
*I *2137:A1 I *D sky130_fd_sc_hd__o21ai_0
*I *2079:A I *D sky130_fd_sc_hd__nand2_1
*I *2036:Y O *D sky130_fd_sc_hd__inv_1
*CAP
1 *2097:A 0.000374149
2 *2101:A 0
3 *2137:A1 0.000329908
4 *2079:A 3.15764e-05
5 *2036:Y 1.67368e-05
6 *157:36 0.000483302
7 *157:23 0.000600935
8 *157:6 0.000210188
9 *2079:A *229:32 2.59355e-05
10 *2097:A *2123:A1 0
11 *2097:A *181:100 0.000266479
12 *2137:A1 *2144:A 0
13 *2137:A1 *2148:A 0.000196262
14 *2137:A1 *219:33 0.000198698
15 *157:6 *229:32 1.05271e-05
16 *157:23 *2148:A 0.000268403
17 *157:23 *222:58 0
18 *157:23 *222:71 4.46186e-06
19 *2082:A2 *2097:A 4.89919e-05
20 *2097:C *2097:A 2.28499e-05
21 *2101:C *2097:A 0
22 *2101:C *2137:A1 0
23 *2101:C *157:36 0
24 *2122:A2 *2079:A 6.05161e-06
25 *2145:C *2137:A1 0
26 *2146:A2 *2137:A1 0
27 *88:18 *157:23 0.000266473
28 *100:34 *2097:A 0
29 *100:34 *157:23 0.000168939
30 *120:10 *2137:A1 0.000137437
31 *124:31 *2137:A1 7.32272e-05
32 *124:61 *2097:A 3.52562e-05
33 *124:61 *2137:A1 1.00375e-05
34 *124:61 *157:36 5.75896e-05
*RES
1 *2036:Y *157:6 9.63036 
2 *157:6 *2079:A 9.83571 
3 *157:6 *157:23 18.3393 
4 *157:23 *2137:A1 21.675 
5 *157:23 *157:36 2.25 
6 *157:36 *2101:A 13.8 
7 *157:36 *2097:A 19.5857 
*END

*D_NET *158 9.34293e-05
*CONN
*I *2231:A I *D sky130_fd_sc_hd__dlygate4sd3_1
*I *2037:Y O *D sky130_fd_sc_hd__inv_1
*CAP
1 *2231:A 3.0985e-05
2 *2037:Y 3.0985e-05
3 *2231:A *2106:B1 3.14592e-05
*RES
1 *2037:Y *2231:A 19.3411 
*END

*D_NET *159 0.00337373
*CONN
*I *2130:A1 I *D sky130_fd_sc_hd__o31ai_1
*I *2113:A I *D sky130_fd_sc_hd__nor3b_1
*I *2042:A I *D sky130_fd_sc_hd__nor2_2
*I *2142:A2 I *D sky130_fd_sc_hd__o21ai_0
*I *2150:A1 I *D sky130_fd_sc_hd__o21ai_0
*I *2038:Y O *D sky130_fd_sc_hd__inv_1
*CAP
1 *2130:A1 7.33055e-05
2 *2113:A 0
3 *2042:A 7.59853e-05
4 *2142:A2 0
5 *2150:A1 0.00030966
6 *2038:Y 0
7 *159:49 7.33055e-05
8 *159:38 0.000371532
9 *159:8 0.000396666
10 *159:4 0.000382552
11 *2042:A *2051:B 9.47456e-05
12 *2042:A *2247:A 6.39901e-05
13 *2130:A1 *2113:B 5.04331e-05
14 *2130:A1 *279:41 9.60875e-05
15 *2130:A1 *280:16 2.35173e-05
16 *2150:A1 *2142:A1 2.06112e-05
17 *2150:A1 *2143:A1 8.64617e-05
18 *2150:A1 *222:16 9.59532e-06
19 *159:8 *219:16 9.22551e-05
20 *159:38 *2038:A 2.99125e-05
21 *159:38 *2051:A 4.43256e-05
22 *159:38 *2051:B 8.00447e-05
23 *159:38 *2113:B 1.94879e-05
24 *159:38 *219:6 2.14658e-05
25 *159:38 *219:16 2.29534e-05
26 *2113:C_N *2130:A1 5.7661e-06
27 *2129:A2 *2130:A1 0.000219219
28 *2142:B1 *159:8 1.54191e-06
29 *42:27 *2150:A1 0.00046446
30 *125:14 *2042:A 5.58941e-05
31 *125:14 *159:38 0.000187956
*RES
1 *2038:Y *159:4 9.3 
2 *159:4 *159:8 1.99107 
3 *159:8 *2150:A1 26.4412 
4 *159:8 *2142:A2 9.3 
5 *159:4 *159:38 10.2589 
6 *159:38 *2042:A 16.05 
7 *159:38 *159:49 4.5 
8 *159:49 *2113:A 9.3 
9 *159:49 *2130:A1 11.9964 
*END

*D_NET *160 0.00229219
*CONN
*I *2147:A1 I *D sky130_fd_sc_hd__a21oi_1
*I *2078:B I *D sky130_fd_sc_hd__nand2_1
*I *2039:Y O *D sky130_fd_sc_hd__nor2_1
*CAP
1 *2147:A1 0
2 *2078:B 4.35539e-05
3 *2039:Y 0.000564016
4 *160:14 0.00060757
5 *2078:B *2069:A_N 1.17091e-05
6 *160:14 *2147:B1 9.25014e-06
7 *160:14 *216:8 0.000268775
8 *160:14 *216:30 0.000393251
9 *160:14 *222:58 0.000125235
10 *2144:B *2078:B 1.10494e-05
11 *2144:B *160:14 5.37741e-06
12 *2149:B1 *2078:B 9.74665e-05
13 *2149:B1 *160:14 2.12005e-05
14 *2245:A *2078:B 4.35597e-05
15 *2245:A *160:14 5.49489e-05
16 *140:62 *160:14 3.52311e-05
*RES
1 *2039:Y *160:14 27.0679 
2 *160:14 *2078:B 11.1036 
3 *160:14 *2147:A1 9.3 
*END

*D_NET *161 0.0109915
*CONN
*I *2094:B I *D sky130_fd_sc_hd__nand2_1
*I *2150:A2 I *D sky130_fd_sc_hd__o21ai_0
*I *2129:B1 I *D sky130_fd_sc_hd__a32oi_1
*I *2040:Y O *D sky130_fd_sc_hd__nor3_1
*CAP
1 *2094:B 0
2 *2150:A2 0.000876194
3 *2129:B1 0.000361771
4 *2040:Y 0
5 *161:54 0.00163128
6 *161:8 0.00159467
7 *161:6 0.00198798
8 *2129:B1 *2042:B 0.000639079
9 *2129:B1 *2128:B 0.000183726
10 *2129:B1 *2129:B2 0.000137515
11 *2129:B1 *2247:A 0.000174512
12 *2129:B1 *279:41 1.94945e-05
13 *2129:B1 *280:16 6.8646e-06
14 *2150:A2 *2143:A1 0.000645159
15 *2150:A2 *2143:B2 0
16 *2150:A2 *222:16 2.34837e-05
17 *161:8 *2041:A 0
18 *161:8 *2042:B 0.000115369
19 *161:8 *173:11 0
20 *161:54 *2041:A 0
21 *161:54 *2070:A 0
22 *161:54 *2074:A 6.91215e-06
23 *161:54 *2074:B 5.76372e-05
24 *161:54 *2076:B1 0.000101545
25 *161:54 *2094:A 5.33005e-05
26 *161:54 *2120:A1 9.66977e-05
27 *161:54 *2121:A1 1.84421e-05
28 *161:54 *2121:B1 7.61932e-05
29 *161:54 *2256:A 0.000127446
30 *161:54 *213:92 1.87955e-05
31 *161:54 *213:103 6.04256e-05
32 *161:54 *216:59 0
33 *161:54 *222:84 2.36238e-05
34 *161:54 *229:112 0
35 *161:54 *270:14 4.60232e-06
36 *161:54 *281:175 9.60875e-05
37 *2064:C *161:54 0
38 *2075:C *161:54 0
39 *2118:B *161:54 0.000117189
40 *2120:A2 *161:54 9.83442e-05
41 *2120:B1 *161:54 0
42 *2121:B2 *161:54 9.77423e-05
43 *2130:A3 *2129:B1 2.95726e-05
44 *2150:B1 *2150:A2 5.04841e-06
45 *2326:A *161:54 0.000320024
46 *42:27 *2150:A2 0.000117337
47 *88:12 *161:54 0
48 *97:14 *161:54 0
49 *98:10 *161:54 0.000340781
50 *125:14 *2129:B1 0.000212496
51 *125:14 *161:8 0.000200638
52 *125:41 *161:8 0.000313568
*RES
1 *2040:Y *161:6 13.8 
2 *161:6 *161:8 8.77679 
3 *161:8 *2129:B1 25.4875 
4 *161:8 *2150:A2 25.6747 
5 *161:6 *161:54 42.4286 
6 *161:54 *2094:B 9.3 
*END

*D_NET *162 0.00516501
*CONN
*I *2061:A2 I *D sky130_fd_sc_hd__o21ai_0
*I *2257:A I *D sky130_fd_sc_hd__dlygate4sd3_1
*I *2051:B I *D sky130_fd_sc_hd__nand2_1
*I *2041:X O *D sky130_fd_sc_hd__or4_1
*CAP
1 *2061:A2 0.000626335
2 *2257:A 0.000287165
3 *2051:B 0.000335337
4 *2041:X 0.000189644
5 *162:14 0.000766168
6 *162:10 0.000959645
7 *2051:B *2051:A 0.000406348
8 *2051:B *2113:B 2.11419e-05
9 *2051:B *213:20 0.000150023
10 *2061:A2 *2061:A1 0.000365612
11 *2257:A *2242:A 3.14163e-05
12 *162:10 *2041:A 0.000125137
13 *162:10 *2195:RESET_B 2.07809e-05
14 *162:10 *2197:RESET_B 5.19402e-05
15 *162:10 *2242:A 0.000164455
16 *162:10 *213:88 5.52238e-05
17 *162:14 *2195:RESET_B 2.69483e-05
18 *162:14 *2242:A 0.000150917
19 *162:14 *213:20 0
20 *2042:A *2051:B 9.47456e-05
21 *2114:A *2061:A2 2.38501e-05
22 *2338:A *2257:A 0.000190848
23 *4:34 *2051:B 2.7814e-05
24 *125:14 *2051:B 1.34737e-05
25 *125:14 *162:14 0
26 *159:38 *2051:B 8.00447e-05
*RES
1 *2041:X *162:10 18.4071 
2 *162:10 *162:14 3.39286 
3 *162:14 *2051:B 23.3357 
4 *162:14 *2257:A 19.2643 
5 *162:10 *2061:A2 25.425 
*END

*D_NET *163 0.000183608
*CONN
*I *2240:A I *D sky130_fd_sc_hd__dlygate4sd3_1
*I *2043:Y O *D sky130_fd_sc_hd__nor2_1
*CAP
1 *2240:A 5.44211e-05
2 *2043:Y 5.44211e-05
3 *42:45 *2240:A 5.33005e-05
4 *85:12 *2240:A 2.14658e-05
*RES
1 *2043:Y *2240:A 19.5464 
*END

*D_NET *164 0.00300519
*CONN
*I *2151:A3 I *D sky130_fd_sc_hd__a32o_1
*I *2050:B I *D sky130_fd_sc_hd__nand2_1
*I *2253:A I *D sky130_fd_sc_hd__dlygate4sd3_1
*I *2046:Y O *D sky130_fd_sc_hd__nor3b_1
*CAP
1 *2151:A3 0.000100483
2 *2050:B 0.000209117
3 *2253:A 3.75792e-05
4 *2046:Y 0.000264297
5 *164:21 0.00048308
6 *164:10 0.000475356
7 *2050:B *2201:CLK 0.00014285
8 *2050:B *2236:A 3.18676e-05
9 *2050:B *177:16 0.000523464
10 *2050:B *207:48 0.00030926
11 *2151:A3 *2151:A2 1.02504e-05
12 *2151:A3 *2152:A 0
13 *2151:A3 *207:48 5.84267e-05
14 *164:10 *2052:A 0
15 *164:10 *2152:B 0
16 *164:21 *2052:A 0
17 *164:21 *2152:A 0
18 *2158:C *164:10 0.000232399
19 *2237:A *2050:B 2.77173e-05
20 *2238:A *164:10 0
21 *81:22 *2253:A 9.90431e-05
22 *148:10 *164:10 0
*RES
1 *2046:Y *164:10 17.925 
2 *164:10 *2253:A 14.7464 
3 *164:10 *164:21 2.85714 
4 *164:21 *2050:B 20.5143 
5 *164:21 *2151:A3 15.7464 
*END

*D_NET *165 0.00217304
*CONN
*I *2140:C I *D sky130_fd_sc_hd__nor3_1
*I *2112:A I *D sky130_fd_sc_hd__or2_0
*I *2254:A I *D sky130_fd_sc_hd__dlygate4sd3_1
*I *2047:Y O *D sky130_fd_sc_hd__nor2b_1
*CAP
1 *2140:C 0.000174246
2 *2112:A 0
3 *2254:A 7.07948e-05
4 *2047:Y 0.000157953
5 *165:27 0.000288455
6 *165:14 0.000342957
7 *2140:C *2111:B1_N 9.71197e-05
8 *2140:C *2140:A 0.000351162
9 *2254:A *211:12 3.67142e-05
10 *165:14 *2111:A1 0
11 *165:14 *2151:A2 0.000138881
12 *165:14 *210:20 5.33005e-05
13 *165:14 *210:24 3.17148e-05
14 *165:14 *210:50 0.000125305
15 *165:14 *211:12 0.000100823
16 *165:27 *2111:A1 0
17 *165:27 *210:50 9.34004e-05
18 *2138:B1 *165:27 9.25014e-06
19 *124:14 *2140:C 0.00010096
*RES
1 *2047:Y *165:14 18.0679 
2 *165:14 *2254:A 15.1571 
3 *165:14 *165:27 7.05357 
4 *165:27 *2112:A 9.3 
5 *165:27 *2140:C 13.5321 
*END

*D_NET *166 0.000112792
*CONN
*I *2274:A I *D sky130_fd_sc_hd__dlygate4sd3_1
*I *2164:Q O *D sky130_fd_sc_hd__dfrtp_1
*CAP
1 *2274:A 1.47133e-05
2 *2164:Q 1.47133e-05
3 *2274:A *2164:RESET_B 6.05161e-06
4 *2274:A *280:28 5.49544e-05
5 *2274:A *282:365 2.23592e-05
*RES
1 *2164:Q *2274:A 19.1357 
*END

*D_NET *167 0.000358639
*CONN
*I *2233:A I *D sky130_fd_sc_hd__dlygate4sd3_1
*I *2165:Q O *D sky130_fd_sc_hd__dfrtp_1
*CAP
1 *2233:A 0.000179319
2 *2165:Q 0.000179319
3 *2233:A *310:10 0
*RES
1 *2165:Q *2233:A 30.1893 
*END

*D_NET *168 0.00105588
*CONN
*I *2252:A I *D sky130_fd_sc_hd__dlygate4sd3_1
*I *2166:Q O *D sky130_fd_sc_hd__dfrtp_1
*CAP
1 *2252:A 0.000156862
2 *2166:Q 0.000156862
3 *2252:A *2165:CLK 6.05161e-06
4 *2252:A *2166:CLK 2.85234e-05
5 *2252:A *177:18 0.000160529
6 *2252:A *177:22 0.000150917
7 *2154:A2 *2252:A 5.33005e-05
8 *2161:B1 *2252:A 0.000316895
9 *150:14 *2252:A 2.59355e-05
*RES
1 *2166:Q *2252:A 32.7429 
*END

*D_NET *169 0.000998178
*CONN
*I *2242:A I *D sky130_fd_sc_hd__dlygate4sd3_1
*I *2195:Q O *D sky130_fd_sc_hd__dfrtp_1
*CAP
1 *2242:A 0.000168012
2 *2195:Q 0.000168012
3 *2242:A *2195:RESET_B 0.000315366
4 *2257:A *2242:A 3.14163e-05
5 *162:10 *2242:A 0.000164455
6 *162:14 *2242:A 0.000150917
*RES
1 *2195:Q *2242:A 32.6179 
*END

*D_NET *170 0.000413786
*CONN
*I *2244:A I *D sky130_fd_sc_hd__dlygate4sd3_1
*I *2196:Q O *D sky130_fd_sc_hd__dfrtp_1
*CAP
1 *2244:A 0.000112162
2 *2196:Q 0.000112162
3 *2244:A *222:37 7.62718e-05
4 *2244:A *222:58 4.90803e-05
5 *2244:A *282:409 5.49995e-05
6 *2149:B1 *2244:A 0
7 *125:41 *2244:A 9.11048e-06
*RES
1 *2196:Q *2244:A 29.7786 
*END

*D_NET *171 0.00026974
*CONN
*I *2256:A I *D sky130_fd_sc_hd__dlygate4sd3_1
*I *2197:Q O *D sky130_fd_sc_hd__dfrtp_1
*CAP
1 *2256:A 4.87364e-05
2 *2197:Q 4.87364e-05
3 *2256:A *2074:A 3.28897e-05
4 *2256:A *216:59 1.19309e-05
5 *161:54 *2256:A 0.000127446
*RES
1 *2197:Q *2256:A 29.2429 
*END

*D_NET *172 0.000752554
*CONN
*I *2250:A I *D sky130_fd_sc_hd__dlygate4sd3_1
*I *2198:Q O *D sky130_fd_sc_hd__dfrtp_1
*CAP
1 *2250:A 0.000279639
2 *2198:Q 0.000279639
3 *2250:A *2129:B2 7.84241e-05
4 *2250:A *175:11 4.03318e-05
5 *2250:A *280:16 1.92905e-05
6 *85:19 *2250:A 5.52302e-05
*RES
1 *2198:Q *2250:A 31.9571 
*END

*D_NET *173 0.000500404
*CONN
*I *2204:A I *D sky130_fd_sc_hd__clkbuf_16
*I *2210:X O *D sky130_fd_sc_hd__clkbuf_16
*CAP
1 *2204:A 0
2 *2210:X 0
3 *173:11 0.000250202
4 *173:6 0.000250202
5 *173:11 *2042:B 0
6 *161:8 *173:11 0
*RES
1 *2210:X *173:6 13.8 
2 *173:6 *173:11 4.375 
3 *173:11 *2204:A 13.8 
*END

*D_NET *174 0.00110138
*CONN
*I *2205:A I *D sky130_fd_sc_hd__clkbuf_16
*I *2203:X O *D sky130_fd_sc_hd__clkbuf_16
*CAP
1 *2205:A 0.000101131
2 *2203:X 0
3 *174:15 0.000383924
4 *174:6 0.000282793
5 *174:15 *178:14 0
6 *81:10 *174:15 0.000159687
7 *81:22 *2205:A 0.000112841
8 *81:22 *174:15 6.10013e-05
*RES
1 *2203:X *174:6 13.8 
2 *174:6 *174:15 10.2411 
3 *174:15 *2205:A 11.2732 
*END

*D_NET *175 0.00664065
*CONN
*I *2209:A I *D sky130_fd_sc_hd__clkbuf_16
*I *2208:A I *D sky130_fd_sc_hd__clkbuf_16
*I *2207:A I *D sky130_fd_sc_hd__clkbuf_16
*I *2206:A I *D sky130_fd_sc_hd__clkbuf_16
*I *2204:X O *D sky130_fd_sc_hd__clkbuf_16
*CAP
1 *2209:A 0.000115351
2 *2208:A 9.19023e-05
3 *2207:A 8.90389e-05
4 *2206:A 0
5 *2204:X 0
6 *175:61 0.0003951
7 *175:49 0.000148485
8 *175:47 0.00109252
9 *175:29 0.00031763
10 *175:24 0.000329053
11 *175:17 0.000192372
12 *175:11 0.00063106
13 *175:6 0.00129533
14 *175:11 *2142:A1 4.25716e-05
15 *175:11 *2143:A1 1.2662e-05
16 *175:11 *2143:B2 0
17 *175:11 *2198:RESET_B 0.000119684
18 *175:11 *213:20 0.000175699
19 *175:47 *2197:D 0
20 *175:47 *2197:RESET_B 0
21 *175:47 *213:20 5.03757e-05
22 *2064:C *175:47 0
23 *2245:A *175:47 1.37292e-05
24 *2249:A *175:47 0.000237261
25 *2250:A *175:11 4.03318e-05
26 *4:10 *175:11 0.0001203
27 *4:10 *175:47 0.000741077
28 *4:34 *175:11 0.000389116
29 *88:12 *175:47 0
30 *88:61 *175:47 0
*RES
1 *2204:X *175:6 13.8 
2 *175:6 *175:11 14.3929 
3 *175:11 *175:17 5.85714 
4 *175:17 *2206:A 9.3 
5 *175:17 *175:24 1.75446 
6 *175:24 *175:29 3.62946 
7 *175:29 *2207:A 10.8625 
8 *175:6 *175:47 22.8929 
9 *175:47 *175:49 0.875 
10 *175:49 *2208:A 10.7286 
11 *175:47 *175:61 4.69196 
12 *175:61 *2209:A 11.0188 
*END

*D_NET *176 0.00169404
*CONN
*I *2056:A I *D sky130_fd_sc_hd__nor2_1
*I *2205:X O *D sky130_fd_sc_hd__clkbuf_16
*CAP
1 *2056:A 0.000526703
2 *2205:X 0.000526703
3 *2056:A *2228:A 7.27183e-05
4 *2056:A *203:23 0
5 *2056:A *280:28 0.00017421
6 *2056:A *282:355 7.54156e-05
7 *2056:A *282:365 0.00021995
8 *81:22 *2056:A 9.83388e-05
*RES
1 *2205:X *2056:A 39.3857 
*END

*D_NET *177 0.014323
*CONN
*I *2198:CLK I *D sky130_fd_sc_hd__dfrtp_1
*I *2195:CLK I *D sky130_fd_sc_hd__dfrtp_1
*I *2194:CLK I *D sky130_fd_sc_hd__dfrtp_1
*I *2200:CLK I *D sky130_fd_sc_hd__dfrtp_1
*I *2211:A I *D sky130_fd_sc_hd__clkbuf_8
*I *2199:CLK I *D sky130_fd_sc_hd__dfstp_2
*I *2201:CLK I *D sky130_fd_sc_hd__dfrtp_1
*I *2164:CLK I *D sky130_fd_sc_hd__dfrtp_1
*I *2165:CLK I *D sky130_fd_sc_hd__dfrtp_1
*I *2166:CLK I *D sky130_fd_sc_hd__dfrtp_1
*I *2206:X O *D sky130_fd_sc_hd__clkbuf_16
*CAP
1 *2198:CLK 0
2 *2195:CLK 0.000111225
3 *2194:CLK 0.000655282
4 *2200:CLK 8.07823e-05
5 *2211:A 0
6 *2199:CLK 0.00014473
7 *2201:CLK 0.00102756
8 *2164:CLK 0.000136063
9 *2165:CLK 0.000314942
10 *2166:CLK 0.00047271
11 *2206:X 0
12 *177:109 0.00132397
13 *177:99 0.000820895
14 *177:53 0.00121927
15 *177:22 0.000846615
16 *177:18 0.00061945
17 *177:16 0.000654863
18 *177:12 0.000376749
19 *177:10 0.000351937
20 *177:6 0.000341297
21 *2165:CLK *2153:B 8.35129e-05
22 *2165:CLK *2159:B1 3.62062e-05
23 *2165:CLK *198:10 8.11992e-05
24 *2165:CLK *198:14 1.76039e-05
25 *2166:CLK *2166:RESET_B 4.47866e-05
26 *2194:CLK *2146:B1 5.49544e-05
27 *2194:CLK *2194:D 5.33334e-05
28 *2194:CLK *2196:RESET_B 8.68625e-05
29 *2195:CLK *2146:B1 0.000230432
30 *2199:CLK *2152:B 0
31 *2199:CLK *2199:D 8.50152e-05
32 *2199:CLK *210:24 4.08555e-06
33 *2199:CLK *282:308 0
34 *2199:CLK *282:340 1.74352e-05
35 *2200:CLK *2200:D 5.49544e-05
36 *2201:CLK *2050:A 7.77751e-05
37 *2201:CLK *2054:A 3.81416e-06
38 *2201:CLK *2236:A 8.0023e-05
39 *2201:CLK *282:245 4.85567e-05
40 *177:10 *207:48 0
41 *177:12 *2052:A 3.14078e-05
42 *177:12 *207:48 7.43578e-06
43 *177:16 *2052:A 2.27416e-05
44 *177:16 *207:48 4.72917e-05
45 *177:18 *2050:A 0
46 *177:18 *2152:B 0
47 *177:18 *207:10 0
48 *177:99 *2151:B2 2.82057e-05
49 *177:99 *2198:D 7.09928e-05
50 *177:99 *207:48 0
51 *177:99 *222:113 2.58997e-05
52 *177:109 *2141:B 4.66189e-05
53 *177:109 *2198:D 5.65955e-05
54 *177:109 *207:67 0
55 *177:109 *219:33 0
56 *177:109 *222:16 0
57 *177:109 *222:113 0
58 *2050:B *2201:CLK 0.00014285
59 *2050:B *177:16 0.000523464
60 *2052:B *177:10 0.000128161
61 *2052:B *177:99 0.00010326
62 *2146:A1 *177:109 6.74911e-05
63 *2151:B1 *177:99 0
64 *2151:B1 *177:109 0.000407934
65 *2161:B1 *177:18 0.000196236
66 *2161:B1 *177:22 2.4741e-05
67 *2162:A2 *2164:CLK 9.41642e-05
68 *2232:A *2194:CLK 0.000144773
69 *2235:A *2165:CLK 0.000178645
70 *2237:A *177:16 0.000258938
71 *2246:A *2194:CLK 1.69151e-05
72 *2252:A *2165:CLK 6.05161e-06
73 *2252:A *2166:CLK 2.85234e-05
74 *2252:A *177:18 0.000160529
75 *2252:A *177:22 0.000150917
76 *81:43 *2199:CLK 4.87953e-05
77 *83:10 *177:99 9.40167e-05
78 *148:10 *177:18 7.48356e-05
79 *148:14 *177:18 0.000188453
80 *148:20 *177:18 0.000191337
81 *148:20 *177:22 0.000195856
*RES
1 *2206:X *177:6 13.8 
2 *177:6 *177:10 6.14286 
3 *177:10 *177:12 3.41071 
4 *177:12 *177:16 10.375 
5 *177:16 *177:18 9.83929 
6 *177:18 *177:22 7.05357 
7 *177:22 *2166:CLK 17.2286 
8 *177:22 *2165:CLK 24.675 
9 *177:18 *2164:CLK 15.9786 
10 *177:16 *177:53 0.732143 
11 *177:53 *2201:CLK 27.2286 
12 *177:53 *2199:CLK 16.6929 
13 *177:12 *2211:A 9.3 
14 *177:10 *2200:CLK 10.6571 
15 *177:6 *177:99 10.4643 
16 *177:99 *177:109 20.0179 
17 *177:109 *2194:CLK 20.925 
18 *177:109 *2195:CLK 11.8893 
19 *177:99 *2198:CLK 9.3 
*END

*D_NET *178 0.0113991
*CONN
*I *2176:CLK I *D sky130_fd_sc_hd__dfrtp_1
*I *2183:CLK I *D sky130_fd_sc_hd__dfrtp_1
*I *2169:CLK I *D sky130_fd_sc_hd__dfrtp_1
*I *2202:CLK I *D sky130_fd_sc_hd__dfrtp_1
*I *2190:CLK I *D sky130_fd_sc_hd__dfrtp_1
*I *2212:A I *D sky130_fd_sc_hd__clkbuf_8
*I *2181:CLK I *D sky130_fd_sc_hd__dfrtp_1
*I *2167:CLK I *D sky130_fd_sc_hd__dfrtp_1
*I *2182:CLK I *D sky130_fd_sc_hd__dfrtp_1
*I *2168:CLK I *D sky130_fd_sc_hd__dfrtp_1
*I *2207:X O *D sky130_fd_sc_hd__clkbuf_16
*CAP
1 *2176:CLK 4.58945e-05
2 *2183:CLK 8.3514e-05
3 *2169:CLK 0.000233081
4 *2202:CLK 0.000547093
5 *2190:CLK 0.00034348
6 *2212:A 3.72884e-05
7 *2181:CLK 0.000423927
8 *2167:CLK 0.000117859
9 *2182:CLK 0
10 *2168:CLK 0.000247724
11 *2207:X 0.000655059
12 *178:110 0.000682772
13 *178:104 0.00051051
14 *178:89 0.000829461
15 *178:22 0.000350997
16 *178:20 0.000488327
17 *178:14 0.0012516
18 *178:10 0.000692507
19 *178:8 0.000909353
20 *2168:CLK *2168:D 8.07313e-05
21 *2176:CLK *2190:RESET_B 3.57488e-05
22 *2181:CLK *2058:A1 0.000574015
23 *2181:CLK *2167:D 0.000301677
24 *2181:CLK *2167:RESET_B 3.4689e-05
25 *2183:CLK *281:92 0.000168698
26 *2190:CLK *2128:B 7.32215e-05
27 *2190:CLK *280:16 0
28 *2202:CLK *2202:D 5.20751e-05
29 *2202:CLK *281:29 0
30 *2202:CLK *281:31 0
31 *178:10 *280:16 0
32 *178:14 *2058:A0 3.02892e-05
33 *178:14 *2059:S 8.67814e-06
34 *178:14 *280:16 0
35 *178:20 *2058:S 8.60361e-05
36 *178:20 *2167:D 5.50052e-05
37 *178:20 *280:28 5.50052e-05
38 *178:20 *280:88 0.000169577
39 *178:104 *281:29 0
40 *178:110 *2092:A1 0.000414159
41 *178:110 *2190:RESET_B 1.39726e-05
42 *178:110 *2276:A 0
43 *178:110 *281:10 0.000201127
44 *178:110 *281:92 9.25014e-06
45 *2092:A2 *178:110 0.000123288
46 *2129:A2 *2190:CLK 3.0285e-05
47 *2129:A3 *2190:CLK 0
48 *2225:A *2190:CLK 0
49 *2299:A *2202:CLK 9.25014e-06
50 *2299:A *178:104 0.000128161
51 *81:10 *2168:CLK 9.57064e-05
52 *81:10 *178:14 0
53 *81:10 *178:20 8.92059e-05
54 *81:10 *178:22 0.000108817
55 *174:15 *178:14 0
*RES
1 *2207:X *178:8 19.2643 
2 *178:8 *178:10 1.64286 
3 *178:10 *178:14 14.9464 
4 *178:14 *178:20 10.1607 
5 *178:20 *178:22 2.55357 
6 *178:22 *2168:CLK 19.05 
7 *178:22 *2182:CLK 13.8 
8 *178:20 *2167:CLK 15.5679 
9 *178:14 *2181:CLK 18.8893 
10 *178:10 *2212:A 14.3357 
11 *178:8 *2190:CLK 20.05 
12 *2207:X *178:89 16.8 
13 *178:89 *2202:CLK 23.425 
14 *178:89 *178:104 6.75 
15 *178:104 *178:110 13.5714 
16 *178:110 *2169:CLK 17.6214 
17 *178:110 *2183:CLK 16.05 
18 *178:104 *2176:CLK 10.2464 
*END

*D_NET *179 0.0133761
*CONN
*I *2173:CLK I *D sky130_fd_sc_hd__dfrtp_1
*I *2187:CLK I *D sky130_fd_sc_hd__dfrtp_1
*I *2172:CLK I *D sky130_fd_sc_hd__dfrtp_1
*I *2177:CLK I *D sky130_fd_sc_hd__dfrtp_1
*I *2191:CLK I *D sky130_fd_sc_hd__dfrtp_1
*I *2178:CLK I *D sky130_fd_sc_hd__dfrtp_1
*I *2192:CLK I *D sky130_fd_sc_hd__dfrtp_1
*I *2196:CLK I *D sky130_fd_sc_hd__dfrtp_1
*I *2193:CLK I *D sky130_fd_sc_hd__dfrtp_1
*I *2179:CLK I *D sky130_fd_sc_hd__dfrtp_1
*I *2180:CLK I *D sky130_fd_sc_hd__dfrtp_1
*I *2208:X O *D sky130_fd_sc_hd__clkbuf_16
*CAP
1 *2173:CLK 0
2 *2187:CLK 0.000264546
3 *2172:CLK 0.000619971
4 *2177:CLK 0
5 *2191:CLK 8.52394e-05
6 *2178:CLK 0
7 *2192:CLK 0.000231071
8 *2196:CLK 0.000453623
9 *2193:CLK 0
10 *2179:CLK 0
11 *2180:CLK 0.000394841
12 *2208:X 0.000429959
13 *179:109 0.000730331
14 *179:96 0.00040496
15 *179:87 0.00054557
16 *179:74 0.000838757
17 *179:70 0.000771522
18 *179:46 0.000676261
19 *179:22 0.000576845
20 *179:16 0.000701677
21 *179:14 0.000532534
22 *179:12 0.000429959
23 *2172:CLK *2177:RESET_B 0.000169808
24 *2172:CLK *253:10 3.08664e-05
25 *2180:CLK *2136:A1 0
26 *2180:CLK *2180:D 7.2342e-05
27 *2191:CLK *2371:A 0.000175897
28 *2196:CLK *2106:A1 0
29 *2196:CLK *2193:D 2.28598e-05
30 *179:12 *2173:D 9.71197e-05
31 *179:12 *2173:RESET_B 0.000483569
32 *179:16 *2082:B1 0
33 *179:16 *2136:A1 0.000128161
34 *179:16 *2173:D 6.74911e-05
35 *179:16 *2215:A 4.88223e-05
36 *179:22 *2136:A1 0.000198698
37 *179:22 *2179:D 0
38 *179:22 *2215:A 5.48488e-05
39 *179:46 *2193:D 7.77652e-05
40 *179:46 *2268:A 4.53889e-05
41 *179:70 *2082:B1 3.69047e-06
42 *179:96 *2178:RESET_B 0.000142859
43 *179:109 *2371:A 0.000223592
44 *2122:A1 *179:12 8.77171e-05
45 *2122:B1 *179:12 5.52238e-05
46 *2123:B2 *179:12 0.000390987
47 *2133:A *179:87 9.93863e-05
48 *2133:A *179:96 5.52302e-05
49 *2133:B *2191:CLK 0
50 *2133:B *179:16 0
51 *2133:B *179:70 0
52 *2133:B *179:74 0
53 *2133:B *179:109 0
54 *2134:A2 *179:87 3.40858e-05
55 *2135:A *179:16 0.000223592
56 *2135:B *179:16 0
57 *2136:B2 *179:16 0
58 *2137:A2 *2196:CLK 0.000134738
59 *2138:A3 *2196:CLK 6.2295e-05
60 *2145:B *2196:CLK 0.000175512
61 *2216:A *2196:CLK 0.000230482
62 *2220:A *179:12 0.00022266
63 *2289:A *179:87 9.47039e-05
64 *2295:A *2180:CLK 0.000127781
65 *2296:A *2180:CLK 2.49484e-05
66 *42:80 *2180:CLK 0.000313632
67 *42:97 *2180:CLK 0
68 *42:178 *179:70 0
69 *42:178 *179:74 0
70 *115:10 *179:87 0.000103066
71 *124:25 *2196:CLK 7.32511e-05
72 *124:61 *2196:CLK 0.000135325
*RES
1 *2208:X *179:12 20.9786 
2 *179:12 *179:14 4.5 
3 *179:14 *179:16 7.41071 
4 *179:16 *179:22 8.82143 
5 *179:22 *2180:CLK 27.6036 
6 *179:22 *2179:CLK 9.3 
7 *179:16 *179:46 8.32143 
8 *179:46 *2193:CLK 9.3 
9 *179:46 *2196:CLK 29.9429 
10 *179:14 *179:70 8.41071 
11 *179:70 *179:74 9.48214 
12 *179:74 *2192:CLK 17.6214 
13 *179:74 *179:87 11.6071 
14 *179:87 *2178:CLK 9.3 
15 *179:87 *179:96 8.73214 
16 *179:96 *2191:CLK 16.05 
17 *179:96 *179:109 7.35714 
18 *179:109 *2177:CLK 9.3 
19 *179:109 *2172:CLK 20.1036 
20 *179:70 *2187:CLK 13.5321 
21 *179:12 *2173:CLK 9.3 
*END

*D_NET *180 0.0139633
*CONN
*I *2184:CLK I *D sky130_fd_sc_hd__dfrtp_1
*I *2170:CLK I *D sky130_fd_sc_hd__dfrtp_1
*I *2174:CLK I *D sky130_fd_sc_hd__dfrtp_1
*I *2188:CLK I *D sky130_fd_sc_hd__dfrtp_1
*I *2197:CLK I *D sky130_fd_sc_hd__dfrtp_1
*I *2189:CLK I *D sky130_fd_sc_hd__dfrtp_1
*I *2175:CLK I *D sky130_fd_sc_hd__dfrtp_1
*I *2171:CLK I *D sky130_fd_sc_hd__dfrtp_1
*I *2185:CLK I *D sky130_fd_sc_hd__dfrtp_1
*I *2186:CLK I *D sky130_fd_sc_hd__dfrtp_1
*I *2213:A I *D sky130_fd_sc_hd__clkbuf_1
*I *2209:X O *D sky130_fd_sc_hd__clkbuf_16
*CAP
1 *2184:CLK 0.000237848
2 *2170:CLK 0.000147329
3 *2174:CLK 0.000472724
4 *2188:CLK 0
5 *2197:CLK 0.00105135
6 *2189:CLK 0
7 *2175:CLK 0.000346474
8 *2171:CLK 0.000221239
9 *2185:CLK 4.26984e-05
10 *2186:CLK 0.000480274
11 *2213:A 0
12 *2209:X 0.000727259
13 *180:110 0.000734781
14 *180:94 0.000472724
15 *180:65 0.000481409
16 *180:63 0.001401
17 *180:61 0.000300487
18 *180:59 0.000644155
19 *180:30 0.000406774
20 *180:19 0.000840162
21 *180:10 0.000735531
22 *2170:CLK *2184:D 6.05161e-06
23 *2171:CLK *2072:B1 0
24 *2171:CLK *2171:D 3.85763e-05
25 *2171:CLK *2172:RESET_B 4.51495e-05
26 *2171:CLK *2365:A 0.000402222
27 *2174:CLK *2188:RESET_B 9.82582e-05
28 *2174:CLK *2189:RESET_B 4.8474e-05
29 *2174:CLK *2275:A 3.08664e-05
30 *2175:CLK *2189:D 0.000199975
31 *2175:CLK *279:90 0
32 *2184:CLK *2184:D 8.66559e-05
33 *2184:CLK *2185:RESET_B 8.22387e-06
34 *2186:CLK *2186:RESET_B 6.66548e-05
35 *2186:CLK *269:8 2.59355e-05
36 *2186:CLK *336:10 3.01877e-05
37 *2197:CLK *2074:B 0.000138881
38 *2197:CLK *2197:D 0.000113295
39 *2197:CLK *190:12 6.28241e-05
40 *180:10 *2070:A 6.42242e-05
41 *180:19 *2070:A 5.80706e-06
42 *180:19 *2070:B 3.01126e-05
43 *180:19 *2267:A 0.000193596
44 *180:30 *2267:A 4.66056e-05
45 *180:30 *2365:A 0.000310991
46 *180:30 *276:12 4.36989e-05
47 *180:61 *2188:D 2.60158e-05
48 *180:61 *279:109 7.08001e-05
49 *180:63 *2188:D 1.41706e-05
50 *180:63 *2189:RESET_B 0
51 *180:63 *279:94 0.000128399
52 *180:63 *279:109 2.8266e-06
53 *180:65 *2189:D 4.1331e-06
54 *180:65 *2189:RESET_B 0
55 *180:65 *278:10 0
56 *180:65 *279:94 6.95112e-05
57 *180:110 *279:109 0.000199217
58 *2072:A2 *2171:CLK 0.000223632
59 *2072:A2 *180:30 0.000242599
60 *2118:B *180:19 6.82409e-05
61 *2222:A *2175:CLK 0.000230828
62 *2227:A *2174:CLK 2.89114e-05
63 *2227:A *180:61 0.000126439
64 *2227:A *180:110 9.25014e-06
65 *2248:A *2197:CLK 3.27117e-05
66 *2330:A *2170:CLK 0.000272344
67 *88:18 *2197:CLK 0.000265843
68 *94:10 *180:19 0
69 *97:8 *2197:CLK 5.33334e-05
70 *98:10 *180:10 4.48113e-05
71 *98:10 *180:19 7.79781e-06
*RES
1 *2209:X *180:10 20.4964 
2 *180:10 *2213:A 13.8 
3 *180:10 *180:19 5.28571 
4 *180:19 *2186:CLK 21.7286 
5 *180:19 *180:30 4.67857 
6 *180:30 *2185:CLK 14.3357 
7 *180:30 *2171:CLK 20.4429 
8 *2209:X *180:59 16.8 
9 *180:59 *180:61 2.55357 
10 *180:61 *180:63 4.67857 
11 *180:63 *180:65 2.85714 
12 *180:65 *2175:CLK 21.925 
13 *180:65 *2189:CLK 13.8 
14 *180:63 *2197:CLK 33.2286 
15 *180:61 *180:94 4.5 
16 *180:94 *2188:CLK 9.3 
17 *180:94 *2174:CLK 18.0679 
18 *180:59 *180:110 7.71429 
19 *180:110 *2170:CLK 17.2107 
20 *180:110 *2184:CLK 17.5321 
*END

*D_NET *181 0.020151
*CONN
*I *2071:A1 I *D sky130_fd_sc_hd__o21ai_0
*I *2065:A1 I *D sky130_fd_sc_hd__o21ai_0
*I *2076:A1 I *D sky130_fd_sc_hd__o21ai_0
*I *2095:A1 I *D sky130_fd_sc_hd__o21ai_0
*I *2098:A1 I *D sky130_fd_sc_hd__o21ai_0
*I *2080:A2 I *D sky130_fd_sc_hd__o31ai_1
*I *2102:A1 I *D sky130_fd_sc_hd__o21ai_0
*I *2106:A1 I *D sky130_fd_sc_hd__o21ai_0
*I *2083:A1 I *D sky130_fd_sc_hd__o31ai_1
*I *2086:A1 I *D sky130_fd_sc_hd__o31ai_1
*I *2089:A I *D sky130_fd_sc_hd__or3_1
*I *2061:A1 I *D sky130_fd_sc_hd__o21ai_0
*I *2332:X O *D sky130_fd_sc_hd__buf_2
*CAP
1 *2071:A1 4.45105e-05
2 *2065:A1 3.54895e-05
3 *2076:A1 0
4 *2095:A1 0
5 *2098:A1 0.00051302
6 *2080:A2 0
7 *2102:A1 0
8 *2106:A1 0.000489025
9 *2083:A1 3.04135e-05
10 *2086:A1 0
11 *2089:A 1.645e-05
12 *2061:A1 0.000411859
13 *2332:X 0.000846553
14 *181:127 0.000840773
15 *181:100 0.00100716
16 *181:86 0.000903149
17 *181:80 0.00114195
18 *181:76 0.00103795
19 *181:30 0.000553485
20 *181:28 0.000330684
21 *181:26 0.000498553
22 *181:24 0.00106894
23 *181:18 0.000494207
24 *181:14 0.00115225
25 *2065:A1 *2065:B1 1.33343e-05
26 *2065:A1 *281:175 0.000128496
27 *2071:A1 *2185:RESET_B 4.93118e-06
28 *2098:A1 *2134:B1 6.28363e-05
29 *2098:A1 *2265:A 5.23822e-05
30 *2098:A1 *329:10 3.79336e-05
31 *2106:A1 *2097:B 0
32 *181:14 *2071:B1 4.50762e-05
33 *181:14 *2072:B1 0
34 *181:14 *2171:RESET_B 0
35 *181:14 *2185:RESET_B 5.32071e-05
36 *181:14 *2345:A 0.000596951
37 *181:14 *2364:A 0.000623731
38 *181:14 *204:10 7.92879e-05
39 *181:14 *334:10 0.000236538
40 *181:14 *340:10 2.20111e-05
41 *181:18 *2065:B1 8.08608e-06
42 *181:18 *2071:B1 1.00887e-05
43 *181:18 *278:32 8.64768e-05
44 *181:18 *340:10 5.5422e-05
45 *181:24 *2070:B 0
46 *181:24 *278:32 0
47 *181:24 *281:175 0.000230482
48 *181:26 *2070:B 0
49 *181:26 *229:112 0
50 *181:28 *229:12 0
51 *181:28 *229:26 0
52 *181:28 *229:112 0
53 *181:30 *229:12 0
54 *181:80 *2076:B1 4.88637e-05
55 *181:80 *2272:A 8.44071e-05
56 *181:80 *270:6 5.52302e-05
57 *181:86 *222:78 8.30431e-05
58 *181:86 *222:84 0.000171484
59 *181:100 *2097:B 0.000156286
60 *181:100 *2123:A1 0.000132069
61 *181:100 *2123:B1 5.71472e-05
62 *181:127 *2219:A 0
63 *181:127 *222:84 1.08359e-05
64 *181:127 *270:14 0.000357162
65 *2061:A2 *2061:A1 0.000365612
66 *2070:C *181:24 3.17148e-05
67 *2070:C *181:26 0.000332231
68 *2070:C *181:76 0.000443648
69 *2071:A2 *2071:A1 5.50052e-05
70 *2076:A2 *181:76 6.09688e-05
71 *2076:A2 *181:80 5.71472e-05
72 *2083:A2 *2083:A1 5.33005e-05
73 *2089:C *2089:A 9.90367e-05
74 *2095:A2 *181:127 0.00035246
75 *2097:A *181:100 0.000266479
76 *2097:C *181:100 5.33005e-05
77 *2098:A2 *2098:A1 0.000100074
78 *2106:A2 *2106:A1 0
79 *2114:A *2061:A1 0.000101062
80 *2114:B *2061:A1 1.37292e-05
81 *2114:B *181:30 2.47093e-05
82 *2116:A *2065:A1 4.35567e-05
83 *2116:A *181:24 8.55687e-05
84 *2120:A2 *181:86 0
85 *2120:A2 *181:127 0
86 *2120:B1 *181:80 6.97494e-05
87 *2122:A2 *181:100 9.7659e-05
88 *2126:A1 *2089:A 9.90367e-05
89 *2134:A2 *2098:A1 0.000563607
90 *2135:B *2106:A1 0
91 *2137:B1 *2106:A1 0
92 *2196:CLK *2106:A1 0
93 *2216:A *2106:A1 0.000234523
94 *2320:A *2098:A1 0.000180207
95 *2332:A *181:14 1.84865e-05
96 *88:26 *2106:A1 0
97 *88:26 *181:100 0.000168939
98 *93:12 *181:26 0.000177948
99 *93:12 *181:28 0.000389854
100 *93:12 *181:30 1.02504e-05
101 *94:10 *181:18 0
102 *94:10 *181:24 6.42338e-05
103 *95:6 *2071:A1 6.05161e-06
104 *99:6 *181:80 0.00011674
105 *100:34 *181:86 0
106 *101:10 *181:30 2.14474e-05
107 *101:20 *181:30 5.33882e-05
108 *102:6 *181:100 4.33173e-05
109 *108:10 *2061:A1 0.000291989
110 *117:8 *181:100 8.3725e-05
*RES
1 *2332:X *181:14 39.6214 
2 *181:14 *181:18 9.48214 
3 *181:18 *181:24 9.83929 
4 *181:24 *181:26 6.5 
5 *181:26 *181:28 4.98214 
6 *181:28 *181:30 2.85714 
7 *181:30 *2061:A1 23.2643 
8 *181:30 *2089:A 14.7464 
9 *181:28 *2086:A1 13.8 
10 *181:26 *2083:A1 14.3357 
11 *181:24 *181:76 12.75 
12 *181:76 *181:80 13.6607 
13 *181:80 *181:86 11.3661 
14 *181:86 *181:100 21.7946 
15 *181:100 *2106:A1 27.8357 
16 *181:100 *2102:A1 9.3 
17 *181:86 *2080:A2 9.3 
18 *181:80 *181:127 12.0714 
19 *181:127 *2098:A1 30.1393 
20 *181:127 *2095:A1 9.3 
21 *181:76 *2076:A1 9.3 
22 *181:18 *2065:A1 10.6571 
23 *181:14 *2071:A1 14.7464 
*END

*D_NET *182 0.00630582
*CONN
*I *2294:A I *D sky130_fd_sc_hd__dlygate4sd3_1
*I *2343:A I *D sky130_fd_sc_hd__buf_2
*I *2180:Q O *D sky130_fd_sc_hd__dfrtp_1
*CAP
1 *2294:A 0.000394697
2 *2343:A 0.00107707
3 *2180:Q 0
4 *182:4 0.00147177
5 *2294:A *2362:A 4.48647e-05
6 *2343:A *2362:A 0.00331489
7 *2107:B *2294:A 2.53112e-06
*RES
1 *2180:Q *182:4 9.3 
2 *182:4 *2343:A 41.0679 
3 *182:4 *2294:A 25.1929 
*END

*D_NET *183 0.000684965
*CONN
*I *2183:D I *D sky130_fd_sc_hd__dfrtp_1
*I *2214:X O *D sky130_fd_sc_hd__dlygate4sd3_1
*CAP
1 *2183:D 0.000254642
2 *2214:X 0.000254642
3 *2183:D *342:6 9.82681e-05
4 *2214:A *2183:D 7.74135e-05
*RES
1 *2214:X *2183:D 31.5286 
*END

*D_NET *184 0.00158179
*CONN
*I *2102:B1 I *D sky130_fd_sc_hd__o21ai_0
*I *2136:A1 I *D sky130_fd_sc_hd__a22o_1
*I *2215:X O *D sky130_fd_sc_hd__dlygate4sd3_1
*CAP
1 *2102:B1 6.29542e-05
2 *2136:A1 0.000327467
3 *2215:X 0.000390421
4 *2136:A1 *2268:A 6.74815e-05
5 *2136:B2 *2136:A1 0.000144332
6 *2139:A2 *2136:A1 1.41029e-05
7 *2180:CLK *2136:A1 0
8 *2295:A *2136:A1 0
9 *118:6 *2102:B1 0.000138881
10 *118:6 *2136:A1 9.90431e-05
11 *125:41 *2136:A1 1.02504e-05
12 *179:16 *2136:A1 0.000128161
13 *179:22 *2136:A1 0.000198698
*RES
1 *2215:X *2136:A1 35.6536 
2 *2215:X *2102:B1 19.9571 
*END

*D_NET *185 0.000283736
*CONN
*I *2193:D I *D sky130_fd_sc_hd__dfrtp_1
*I *2216:X O *D sky130_fd_sc_hd__dlygate4sd3_1
*CAP
1 *2193:D 9.15552e-05
2 *2216:X 9.15552e-05
3 *2196:CLK *2193:D 2.28598e-05
4 *179:46 *2193:D 7.77652e-05
*RES
1 *2216:X *2193:D 20.3679 
*END

*D_NET *186 0.00300448
*CONN
*I *2058:A1 I *D sky130_fd_sc_hd__mux2_1
*I *2109:A1 I *D sky130_fd_sc_hd__mux2_1
*I *2217:X O *D sky130_fd_sc_hd__dlygate4sd3_1
*CAP
1 *2058:A1 0.000133161
2 *2109:A1 0.000422551
3 *2217:X 0.000277028
4 *186:10 0.00083274
5 *2109:A1 *2110:S 0.000141734
6 *2109:A1 *2167:RESET_B 0.000143819
7 *2109:A1 *2217:A 8.61222e-05
8 *186:10 *2217:A 7.5802e-05
9 *2181:CLK *2058:A1 0.000574015
10 *2218:A *2058:A1 0.000317503
*RES
1 *2217:X *186:10 17.925 
2 *186:10 *2109:A1 22.3357 
3 *186:10 *2058:A1 19.2643 
*END

*D_NET *187 0.00103758
*CONN
*I *2167:D I *D sky130_fd_sc_hd__dfrtp_1
*I *2218:X O *D sky130_fd_sc_hd__dlygate4sd3_1
*CAP
1 *2167:D 0.000286739
2 *2218:X 0.000286739
3 *2167:D *2058:A0 4.07423e-05
4 *2167:D *2059:S 6.66813e-05
5 *2181:CLK *2167:D 0.000301677
6 *178:20 *2167:D 5.50052e-05
*RES
1 *2218:X *2167:D 32.6536 
*END

*D_NET *188 0.00153578
*CONN
*I *2123:A1 I *D sky130_fd_sc_hd__a22o_1
*I *2080:B1 I *D sky130_fd_sc_hd__o31ai_1
*I *2219:X O *D sky130_fd_sc_hd__dlygate4sd3_1
*CAP
1 *2123:A1 8.32467e-05
2 *2080:B1 0
3 *2219:X 0.000288052
4 *188:10 0.000371299
5 *2123:A1 *2123:B1 5.52238e-05
6 *188:10 *2123:B1 0
7 *2082:A2 *2123:A1 0
8 *2097:A *2123:A1 0
9 *2120:A2 *188:10 0.000248382
10 *2123:B2 *188:10 4.94362e-05
11 *100:34 *188:10 4.15914e-05
12 *102:6 *2123:A1 0.000266479
13 *181:100 *2123:A1 0.000132069
*RES
1 *2219:X *188:10 25.1036 
2 *188:10 *2080:B1 9.3 
3 *188:10 *2123:A1 12.7464 
*END

*D_NET *189 0.000321188
*CONN
*I *2187:D I *D sky130_fd_sc_hd__dfrtp_1
*I *2220:X O *D sky130_fd_sc_hd__dlygate4sd3_1
*CAP
1 *2187:D 9.68537e-05
2 *2220:X 9.68537e-05
3 *2187:D *2173:RESET_B 0.00012748
4 *124:76 *2187:D 0
*RES
1 *2220:X *2187:D 29.475 
*END

*D_NET *190 0.001599
*CONN
*I *2127:A1 I *D sky130_fd_sc_hd__a22o_1
*I *2086:B1 I *D sky130_fd_sc_hd__o31ai_1
*I *2221:X O *D sky130_fd_sc_hd__dlygate4sd3_1
*CAP
1 *2127:A1 0
2 *2086:B1 8.75295e-05
3 *2221:X 0.000482187
4 *190:12 0.000569716
5 *2086:B1 *2127:B1 5.52302e-05
6 *2086:B1 *279:90 6.05161e-06
7 *190:12 *278:21 5.01213e-05
8 *190:12 *279:94 9.91086e-05
9 *2088:A2 *2086:B1 0.00018372
10 *2126:B1 *2086:B1 2.51343e-06
11 *2197:CLK *190:12 6.28241e-05
12 *93:8 *2086:B1 0
*RES
1 *2221:X *190:12 24.6929 
2 *190:12 *2086:B1 11.4964 
3 *190:12 *2127:A1 9.3 
*END

*D_NET *191 0.000714373
*CONN
*I *2189:D I *D sky130_fd_sc_hd__dfrtp_1
*I *2222:X O *D sky130_fd_sc_hd__dlygate4sd3_1
*CAP
1 *2189:D 0.000255133
2 *2222:X 0.000255133
3 *2175:CLK *2189:D 0.000199975
4 *180:65 *2189:D 4.1331e-06
*RES
1 *2222:X *2189:D 31.8321 
*END

*D_NET *192 0.0025034
*CONN
*I *2090:A I *D sky130_fd_sc_hd__nand2_1
*I *2128:A I *D sky130_fd_sc_hd__nand2_1
*I *2129:A1 I *D sky130_fd_sc_hd__a32oi_1
*I *2223:X O *D sky130_fd_sc_hd__dlygate4sd3_1
*CAP
1 *2090:A 0.000346212
2 *2128:A 2.27107e-05
3 *2129:A1 0.000159223
4 *2223:X 0.000100102
5 *192:14 0.000328121
6 *192:8 0.000592502
7 *2090:A *2190:RESET_B 0.000179995
8 *2090:A *273:6 6.35826e-05
9 *2128:A *2128:B 5.31567e-06
10 *2129:A1 *2128:B 5.23057e-05
11 *2129:A1 *2129:B2 3.99614e-06
12 *2090:B *2090:A 7.01229e-05
13 *2092:A2 *2090:A 6.05161e-06
14 *2129:A3 *2129:A1 5.52238e-05
15 *2129:A3 *192:8 0
16 *2129:A3 *192:14 0
17 *2224:A *2129:A1 1.33343e-05
18 *2224:A *192:8 0.00020042
19 *2224:A *192:14 0.000304177
20 *108:10 *192:8 0
*RES
1 *2223:X *192:8 16.3536 
2 *192:8 *192:14 8.01786 
3 *192:14 *2129:A1 12.3179 
4 *192:14 *2128:A 9.72857 
5 *192:8 *2090:A 18.8893 
*END

*D_NET *193 0.00344992
*CONN
*I *2344:A I *D sky130_fd_sc_hd__buf_2
*I *2291:A I *D sky130_fd_sc_hd__dlygate4sd3_1
*I *2170:Q O *D sky130_fd_sc_hd__dfrtp_1
*CAP
1 *2344:A 0.00151471
2 *2291:A 0.00167388
3 *2170:Q 0.000159171
4 *2291:A *2170:RESET_B 7.62237e-05
5 *2291:A *2174:RESET_B 2.59355e-05
*RES
1 *2170:Q *2291:A 21.6 
2 *2291:A *2344:A 44.6 
*END

*D_NET *194 0.00148298
*CONN
*I *2130:B1 I *D sky130_fd_sc_hd__o31ai_1
*I *2224:X O *D sky130_fd_sc_hd__dlygate4sd3_1
*CAP
1 *2130:B1 0.000490972
2 *2224:X 0.000490972
3 *2130:B1 *2341:A 0
4 *2129:A2 *2130:B1 8.81131e-05
5 *2225:A *2130:B1 0.000145107
6 *108:10 *2130:B1 0.000267814
*RES
1 *2224:X *2130:B1 36.5821 
*END

*D_NET *195 0.000230924
*CONN
*I *2190:D I *D sky130_fd_sc_hd__dfrtp_1
*I *2225:X O *D sky130_fd_sc_hd__dlygate4sd3_1
*CAP
1 *2190:D 0.000115462
2 *2225:X 0.000115462
3 *2190:D *279:73 0
4 *2225:A *2190:D 0
*RES
1 *2225:X *2190:D 29.2429 
*END

*D_NET *196 0.00140953
*CONN
*I *2125:A1 I *D sky130_fd_sc_hd__a22o_1
*I *2083:B1 I *D sky130_fd_sc_hd__o31ai_1
*I *2226:X O *D sky130_fd_sc_hd__dlygate4sd3_1
*CAP
1 *2125:A1 5.90763e-05
2 *2083:B1 7.34989e-05
3 *2226:X 0.000242782
4 *196:6 0.000375357
5 *2125:A1 *278:21 0.000175526
6 *2125:A1 *278:32 1.02504e-05
7 *2125:A1 *279:94 9.24491e-05
8 *196:6 *2085:A1 2.90516e-05
9 *196:6 *2085:B1 3.08664e-05
10 *2085:A2 *2083:B1 4.87854e-05
11 *2085:A2 *196:6 0.00021529
12 *2302:A *196:6 5.65955e-05
*RES
1 *2226:X *196:6 14.7643 
2 *196:6 *2083:B1 10.675 
3 *196:6 *2125:A1 20.55 
*END

*D_NET *197 0.000676497
*CONN
*I *2188:D I *D sky130_fd_sc_hd__dfrtp_1
*I *2227:X O *D sky130_fd_sc_hd__dlygate4sd3_1
*CAP
1 *2188:D 0.000296446
2 *2227:X 0.000296446
3 *2188:D *2189:RESET_B 4.1331e-06
4 *2227:A *2188:D 3.92854e-05
5 *180:61 *2188:D 2.60158e-05
6 *180:63 *2188:D 1.41706e-05
*RES
1 *2227:X *2188:D 32.0286 
*END

*D_NET *198 0.00392119
*CONN
*I *2046:C_N I *D sky130_fd_sc_hd__nor3b_1
*I *2156:B I *D sky130_fd_sc_hd__nor2_1
*I *2153:A I *D sky130_fd_sc_hd__nand3_1
*I *2157:B I *D sky130_fd_sc_hd__xor2_1
*I *2155:A1 I *D sky130_fd_sc_hd__o21ai_0
*I *2228:X O *D sky130_fd_sc_hd__dlygate4sd3_1
*CAP
1 *2046:C_N 0
2 *2156:B 0.000185426
3 *2153:A 0.000227516
4 *2157:B 7.74512e-05
5 *2155:A1 5.31648e-05
6 *2228:X 0.000270532
7 *198:43 0.000297765
8 *198:14 0.000289111
9 *198:10 0.000747502
10 *198:8 0.000744362
11 *2153:A *2153:B 2.37575e-05
12 *2153:A *2159:B1 2.89114e-05
13 *2156:B *2046:B 0.000241893
14 *2156:B *2156:A 3.03304e-05
15 *2156:B *2161:A1 3.07555e-05
16 *2156:B *203:29 5.56507e-05
17 *198:8 *280:55 0.000183711
18 *198:10 *2158:B 0
19 *198:10 *2161:A1 0
20 *198:10 *2164:D 6.44649e-05
21 *198:10 *2165:D 0.000103267
22 *198:14 *2159:B1 0
23 *198:14 *2165:D 9.25014e-06
24 *198:43 *2158:B 0
25 *198:43 *2161:A1 0
26 *2155:B1 *2153:A 1.07719e-05
27 *2155:B1 *198:14 0
28 *2158:C *2156:B 5.52238e-05
29 *2159:A2 *2155:A1 7.77652e-05
30 *2159:A2 *2157:B 6.05161e-06
31 *2159:A2 *198:14 0
32 *2165:CLK *198:10 8.11992e-05
33 *2165:CLK *198:14 1.76039e-05
34 *148:20 *2153:A 7.75083e-06
*RES
1 *2228:X *198:8 17.2107 
2 *198:8 *198:10 7.71429 
3 *198:10 *198:14 7.35714 
4 *198:14 *2155:A1 10.6571 
5 *198:14 *2157:B 10.6571 
6 *198:10 *2153:A 17.2286 
7 *198:8 *198:43 6.14286 
8 *198:43 *2156:B 22.7911 
9 *198:43 *2046:C_N 9.3 
*END

*D_NET *199 0.000302544
*CONN
*I *2164:D I *D sky130_fd_sc_hd__dfrtp_1
*I *2229:X O *D sky130_fd_sc_hd__dlygate4sd3_1
*CAP
1 *2164:D 8.56991e-05
2 *2229:X 8.56991e-05
3 *2164:D *2159:B1 6.66813e-05
4 *198:10 *2164:D 6.44649e-05
*RES
1 *2229:X *2164:D 29.7786 
*END

*D_NET *200 0.00131813
*CONN
*I *2106:B1 I *D sky130_fd_sc_hd__o21ai_0
*I *2037:A I *D sky130_fd_sc_hd__inv_1
*I *2230:X O *D sky130_fd_sc_hd__dlygate4sd3_1
*CAP
1 *2106:B1 0.000432402
2 *2037:A 2.89318e-05
3 *2230:X 0.000461334
4 *2106:B1 *2139:A1 0.000263679
5 *2139:A2 *2106:B1 6.74651e-05
6 *2231:A *2106:B1 3.14592e-05
7 *2232:A *2106:B1 3.28616e-05
*RES
1 *2230:X *2037:A 19.292 
2 *2230:X *2106:B1 36.2786 
*END

*D_NET *201 0.000959133
*CONN
*I *2139:A1 I *D sky130_fd_sc_hd__a21oi_1
*I *2231:X O *D sky130_fd_sc_hd__dlygate4sd3_1
*CAP
1 *2139:A1 0.000315928
2 *2231:X 0.000315928
3 *2106:B1 *2139:A1 0.000263679
4 *2139:B1 *2139:A1 0
5 *2232:A *2139:A1 6.35976e-05
*RES
1 *2231:X *2139:A1 33.2429 
*END

*D_NET *202 0.000403141
*CONN
*I *2194:D I *D sky130_fd_sc_hd__dfrtp_1
*I *2232:X O *D sky130_fd_sc_hd__dlygate4sd3_1
*CAP
1 *2194:D 6.04687e-05
2 *2232:X 6.04687e-05
3 *2194:D *2196:RESET_B 0.00022887
4 *2194:CLK *2194:D 5.33334e-05
*RES
1 *2232:X *2194:D 20.7786 
*END

*D_NET *203 0.00335209
*CONN
*I *2158:A I *D sky130_fd_sc_hd__nand3_1
*I *2046:A I *D sky130_fd_sc_hd__nor3b_1
*I *2156:A I *D sky130_fd_sc_hd__nor2_1
*I *2157:A I *D sky130_fd_sc_hd__xor2_1
*I *2233:X O *D sky130_fd_sc_hd__dlygate4sd3_1
*CAP
1 *2158:A 1.11423e-05
2 *2046:A 0
3 *2156:A 2.15071e-05
4 *2157:A 0.000419905
5 *2233:X 0
6 *203:29 0.000165399
7 *203:23 0.000700121
8 *203:6 0.000964992
9 *2156:A *2046:B 0.000144773
10 *2157:A *2165:RESET_B 0.000129868
11 *203:23 *2158:B 0
12 *203:23 *2165:RESET_B 0.00029566
13 *2056:A *203:23 0
14 *2156:B *2156:A 3.03304e-05
15 *2156:B *203:29 5.56507e-05
16 *2158:C *2156:A 0.000188586
17 *2158:C *203:29 0.000125392
18 *2238:A *203:23 9.87617e-05
*RES
1 *2233:X *203:6 13.8 
2 *203:6 *2157:A 21.5857 
3 *203:6 *203:23 15.5179 
4 *203:23 *203:29 3.14286 
5 *203:29 *2156:A 11.0679 
6 *203:29 *2046:A 9.3 
7 *203:23 *2158:A 9.72857 
*END

*D_NET *204 0.00272819
*CONN
*I *2280:A I *D sky130_fd_sc_hd__dlygate4sd3_1
*I *2345:A I *D sky130_fd_sc_hd__buf_2
*I *2171:Q O *D sky130_fd_sc_hd__dfrtp_1
*CAP
1 *2280:A 0.000176297
2 *2345:A 0.000669303
3 *2171:Q 0.000133562
4 *204:10 0.000979162
5 *204:10 *2072:B1 0
6 *2332:A *2345:A 9.36295e-05
7 *181:14 *2345:A 0.000596951
8 *181:14 *204:10 7.92879e-05
*RES
1 *2171:Q *204:10 16.2821 
2 *204:10 *2345:A 30.6214 
3 *204:10 *2280:A 16.5143 
*END

*D_NET *205 0.00132575
*CONN
*I *2159:B1 I *D sky130_fd_sc_hd__o21ai_0
*I *2234:X O *D sky130_fd_sc_hd__dlygate4sd3_1
*CAP
1 *2159:B1 0.000349992
2 *2234:X 0.000349992
3 *2159:B1 *2317:A 6.05161e-06
4 *2159:B1 *280:55 7.62323e-05
5 *2153:A *2159:B1 2.89114e-05
6 *2155:A2 *2159:B1 5.90443e-06
7 *2159:A2 *2159:B1 1.02504e-05
8 *2164:D *2159:B1 6.66813e-05
9 *2165:CLK *2159:B1 3.62062e-05
10 *2235:A *2159:B1 0.000126874
11 *150:14 *2159:B1 0.000268658
12 *198:14 *2159:B1 0
*RES
1 *2234:X *2159:B1 36.9036 
*END

*D_NET *206 0.000701095
*CONN
*I *2165:D I *D sky130_fd_sc_hd__dfrtp_1
*I *2235:X O *D sky130_fd_sc_hd__dlygate4sd3_1
*CAP
1 *2165:D 0.000222861
2 *2235:X 0.000222861
3 *2165:D *2153:B 0.000142856
4 *198:10 *2165:D 0.000103267
5 *198:14 *2165:D 9.25014e-06
*RES
1 *2235:X *2165:D 31.1179 
*END

*D_NET *207 0.00860542
*CONN
*I *2143:B2 I *D sky130_fd_sc_hd__o22a_1
*I *2047:B_N I *D sky130_fd_sc_hd__nor2b_1
*I *2141:A I *D sky130_fd_sc_hd__nor3_1
*I *2138:C1 I *D sky130_fd_sc_hd__a311oi_1
*I *2151:A1 I *D sky130_fd_sc_hd__a32o_1
*I *2050:A I *D sky130_fd_sc_hd__nand2_1
*I *2154:B1_N I *D sky130_fd_sc_hd__a21bo_1
*I *2162:B1_N I *D sky130_fd_sc_hd__a21boi_0
*I *2236:X O *D sky130_fd_sc_hd__dlygate4sd3_1
*CAP
1 *2143:B2 0.000437215
2 *2047:B_N 0
3 *2141:A 4.49771e-05
4 *2138:C1 0.000242664
5 *2151:A1 0
6 *2050:A 8.11775e-05
7 *2154:B1_N 0
8 *2162:B1_N 9.18929e-05
9 *2236:X 0.000743959
10 *207:67 0.000511871
11 *207:61 0.000356535
12 *207:57 0.000646276
13 *207:48 0.000435702
14 *207:10 0.000416781
15 *207:8 0.000791079
16 *2050:A *2236:A 0.000142856
17 *2050:A *282:247 0
18 *2138:C1 *2138:A1 3.9846e-05
19 *2138:C1 *219:16 1.02821e-05
20 *2138:C1 *279:14 2.59355e-05
21 *2141:A *279:14 4.43256e-05
22 *2143:B2 *2043:A 9.25014e-06
23 *2143:B2 *2143:A1 3.08382e-06
24 *2143:B2 *222:6 4.35597e-05
25 *2143:B2 *222:16 5.33334e-05
26 *2143:B2 *222:113 1.49841e-05
27 *207:8 *2236:A 9.47712e-05
28 *207:10 *2054:A 0
29 *207:48 *2151:A2 1.02504e-05
30 *207:57 *2151:A2 0.000165269
31 *207:57 *2152:A 0
32 *207:61 *2151:A2 6.62868e-05
33 *207:67 *2043:A 0
34 *207:67 *2141:B 0
35 *207:67 *2152:A 0.000479727
36 *207:67 *219:33 7.90803e-05
37 *207:67 *279:14 0.000167774
38 *2050:B *207:48 0.00030926
39 *2138:A3 *2138:C1 0.000142856
40 *2142:B1 *2143:B2 4.82357e-05
41 *2143:B1 *2143:B2 2.82558e-05
42 *2150:A2 *2143:B2 0
43 *2151:A3 *207:48 5.84267e-05
44 *2151:B1 *2143:B2 0.000148911
45 *2151:B1 *207:48 1.02504e-05
46 *2151:B1 *207:57 0.000250201
47 *2163:B1 *2162:B1_N 3.9733e-05
48 *2163:B1 *207:10 0.000148191
49 *2201:CLK *2050:A 7.77751e-05
50 *2237:A *207:8 0.000312955
51 *2251:A *207:57 0
52 *2318:A *207:10 0.000127478
53 *2339:A *2138:C1 5.52238e-05
54 *85:12 *2143:B2 0.000482128
55 *85:19 *2143:B2 5.65955e-05
56 *140:43 *2143:B2 3.47641e-06
57 *175:11 *2143:B2 0
58 *177:10 *207:48 0
59 *177:12 *207:48 7.43578e-06
60 *177:16 *207:48 4.72917e-05
61 *177:18 *2050:A 0
62 *177:18 *207:10 0
63 *177:99 *207:48 0
64 *177:109 *207:67 0
*RES
1 *2236:X *207:8 19.2643 
2 *207:8 *207:10 7.41071 
3 *207:10 *2162:B1_N 15.7464 
4 *207:10 *2154:B1_N 13.8 
5 *207:8 *2050:A 16.1929 
6 *2236:X *207:48 19.2643 
7 *207:48 *2151:A1 13.8 
8 *207:48 *207:57 3.16071 
9 *207:57 *207:61 6.67857 
10 *207:61 *207:67 16.1071 
11 *207:67 *2138:C1 13.9607 
12 *207:67 *2141:A 10.2464 
13 *207:61 *2047:B_N 9.3 
14 *207:57 *2143:B2 33.4429 
*END

*D_NET *208 0.000867476
*CONN
*I *2052:A I *D sky130_fd_sc_hd__nand2_1
*I *2237:X O *D sky130_fd_sc_hd__dlygate4sd3_1
*CAP
1 *2052:A 0.000314101
2 *2237:X 0.000314101
3 *81:22 *2052:A 0.000185124
4 *164:10 *2052:A 0
5 *164:21 *2052:A 0
6 *177:12 *2052:A 3.14078e-05
7 *177:16 *2052:A 2.27416e-05
*RES
1 *2237:X *2052:A 32.6714 
*END

*D_NET *209 0.00146262
*CONN
*I *2200:D I *D sky130_fd_sc_hd__dfrtp_1
*I *2238:X O *D sky130_fd_sc_hd__dlygate4sd3_1
*CAP
1 *2200:D 0.000576447
2 *2238:X 0.000576447
3 *2052:B *2200:D 0.000200413
4 *2200:CLK *2200:D 5.49544e-05
5 *2238:A *2200:D 5.43633e-05
*RES
1 *2238:X *2200:D 36.85 
*END

*D_NET *210 0.00714974
*CONN
*I *2141:B I *D sky130_fd_sc_hd__nor3_1
*I *2043:A I *D sky130_fd_sc_hd__nor2_1
*I *2140:A I *D sky130_fd_sc_hd__nor3_1
*I *2111:B1_N I *D sky130_fd_sc_hd__a21boi_0
*I *2057:A1 I *D sky130_fd_sc_hd__o2111ai_1
*I *2152:B I *D sky130_fd_sc_hd__or2_0
*I *2044:A1 I *D sky130_fd_sc_hd__o21ai_0
*I *2239:X O *D sky130_fd_sc_hd__dlygate4sd3_1
*CAP
1 *2141:B 8.17317e-05
2 *2043:A 0.000184032
3 *2140:A 0.00019887
4 *2111:B1_N 0.00011639
5 *2057:A1 2.30787e-05
6 *2152:B 0.000308412
7 *2044:A1 2.15003e-05
8 *2239:X 0.000653134
9 *210:73 0.000291433
10 *210:50 0.000398041
11 *210:24 0.000529091
12 *210:20 0.000937685
13 *2043:A *279:14 6.65616e-05
14 *2057:A1 *282:340 2.89016e-05
15 *2152:B *2152:A 0.00010096
16 *210:20 *2053:B1 1.98839e-05
17 *210:20 *2151:A2 2.14757e-05
18 *210:24 *2047:A 0
19 *210:24 *2199:D 7.2754e-05
20 *210:24 *211:12 1.18064e-05
21 *2057:A2 *210:24 0.00012401
22 *2138:A2 *210:50 7.1724e-05
23 *2138:B1 *2111:B1_N 4.38128e-05
24 *2140:C *2111:B1_N 9.71197e-05
25 *2140:C *2140:A 0.000351162
26 *2141:C *2043:A 6.77303e-05
27 *2141:C *2141:B 0.000115467
28 *2143:B2 *2043:A 9.25014e-06
29 *2151:B1 *2043:A 0.000113536
30 *2151:B1 *2141:B 4.46186e-06
31 *2199:CLK *2152:B 0
32 *2199:CLK *210:24 4.08555e-06
33 *42:31 *2043:A 1.90936e-05
34 *42:39 *2140:A 0.000219711
35 *42:45 *210:24 6.73939e-05
36 *42:45 *210:50 0.000128154
37 *42:70 *2044:A1 5.52238e-05
38 *42:70 *210:20 7.47367e-05
39 *81:22 *2057:A1 1.05524e-05
40 *81:22 *2152:B 0.00016615
41 *81:43 *2057:A1 5.33005e-05
42 *81:43 *210:20 0.000358971
43 *81:43 *210:24 2.18827e-05
44 *81:49 *210:20 0.000230482
45 *85:8 *210:24 9.10431e-06
46 *85:12 *2043:A 0.000186669
47 *123:8 *2111:B1_N 0.00010096
48 *140:6 *2140:A 2.89114e-05
49 *164:10 *2152:B 0
50 *165:14 *210:20 5.33005e-05
51 *165:14 *210:24 3.17148e-05
52 *165:14 *210:50 0.000125305
53 *165:27 *210:50 9.34004e-05
54 *177:18 *2152:B 0
55 *177:109 *2141:B 4.66189e-05
56 *207:67 *2043:A 0
57 *207:67 *2141:B 0
*RES
1 *2239:X *2044:A1 19.1357 
2 *2239:X *210:20 22.55 
3 *210:20 *210:24 4.15179 
4 *210:24 *2152:B 19.9875 
5 *210:24 *2057:A1 14.6125 
6 *210:20 *210:50 8.57143 
7 *210:50 *2111:B1_N 11.8893 
8 *210:50 *2140:A 13.9429 
9 *2140:A *210:73 14.3357 
10 *210:73 *2043:A 18.7286 
11 *210:73 *2141:B 15.7464 
*END

*D_NET *211 0.00233583
*CONN
*I *2151:A2 I *D sky130_fd_sc_hd__a32o_1
*I *2053:B1 I *D sky130_fd_sc_hd__a21oi_1
*I *2240:X O *D sky130_fd_sc_hd__dlygate4sd3_1
*CAP
1 *2151:A2 0.000389325
2 *2053:B1 5.16322e-05
3 *2240:X 0.000143684
4 *211:12 0.00058464
5 *2151:A2 *2152:A 0
6 *211:12 *2111:A1 0
7 *2151:A3 *2151:A2 1.02504e-05
8 *2241:A *2053:B1 5.62995e-05
9 *2251:A *2151:A2 3.5707e-05
10 *2254:A *211:12 3.67142e-05
11 *42:70 *2053:B1 0.000104151
12 *42:70 *2151:A2 0.000126566
13 *81:43 *2053:B1 0.000230475
14 *81:43 *211:12 3.17148e-05
15 *165:14 *2151:A2 0.000138881
16 *165:14 *211:12 0.000100823
17 *207:48 *2151:A2 1.02504e-05
18 *207:57 *2151:A2 0.000165269
19 *207:61 *2151:A2 6.62868e-05
20 *210:20 *2053:B1 1.98839e-05
21 *210:20 *2151:A2 2.14757e-05
22 *210:24 *211:12 1.18064e-05
*RES
1 *2240:X *211:12 20.8893 
2 *211:12 *2053:B1 11.8893 
3 *211:12 *2151:A2 26.4607 
*END

*D_NET *212 0.000847051
*CONN
*I *2199:D I *D sky130_fd_sc_hd__dfstp_2
*I *2241:X O *D sky130_fd_sc_hd__dlygate4sd3_1
*CAP
1 *2199:D 0.000232231
2 *2241:X 0.000232231
3 *2199:D *282:308 0
4 *2199:D *282:340 7.61932e-05
5 *2199:CLK *2199:D 8.50152e-05
6 *42:70 *2199:D 7.02611e-05
7 *81:43 *2199:D 7.83659e-05
8 *210:24 *2199:D 7.2754e-05
*RES
1 *2241:X *2199:D 32.2607 
*END

*D_NET *213 0.0106651
*CONN
*I *2069:A_N I *D sky130_fd_sc_hd__nand2b_1
*I *2041:C I *D sky130_fd_sc_hd__or4_1
*I *2074:B I *D sky130_fd_sc_hd__nand2_1
*I *2063:B I *D sky130_fd_sc_hd__nand2b_1
*I *2040:B I *D sky130_fd_sc_hd__nor3_1
*I *2039:B I *D sky130_fd_sc_hd__nor2_1
*I *2105:B I *D sky130_fd_sc_hd__nand4b_1
*I *2143:A1 I *D sky130_fd_sc_hd__o22a_1
*I *2142:A1 I *D sky130_fd_sc_hd__o21ai_0
*I *2242:X O *D sky130_fd_sc_hd__dlygate4sd3_1
*CAP
1 *2069:A_N 0.000526977
2 *2041:C 0
3 *2074:B 0.000202354
4 *2063:B 4.94028e-06
5 *2040:B 6.0355e-05
6 *2039:B 0
7 *2105:B 0.000447761
8 *2143:A1 0.000431011
9 *2142:A1 6.06695e-05
10 *2242:X 0.000132889
11 *213:103 0.000314111
12 *213:92 0.000205892
13 *213:88 0.000184693
14 *213:62 0.000472416
15 *213:60 0.000170627
16 *213:58 0.000669462
17 *213:20 0.00100391
18 *213:8 0.000787605
19 *2040:B *2041:B 9.80173e-05
20 *2040:B *216:39 0.000183726
21 *2063:B *2069:B 1.28809e-05
22 *2069:A_N *2069:B 3.70716e-05
23 *2069:A_N *2197:RESET_B 0.000148911
24 *2074:B *2197:RESET_B 0
25 *2105:B *2105:D 0.000136365
26 *2105:B *2149:A2 2.81111e-05
27 *2105:B *216:8 0.000509033
28 *2105:B *216:30 8.17447e-05
29 *2142:A1 *219:16 9.16325e-06
30 *2143:A1 *222:16 5.27696e-05
31 *213:20 *2195:RESET_B 0.000166091
32 *213:58 *2195:RESET_B 8.24706e-05
33 *213:58 *2197:RESET_B 0.000138843
34 *213:62 *216:30 2.59355e-05
35 *213:88 *2039:A 1.04232e-05
36 *213:88 *216:30 8.43535e-06
37 *213:88 *216:39 9.76689e-05
38 *213:92 *2041:A 1.02504e-05
39 *213:92 *2197:RESET_B 0
40 *213:103 *2197:RESET_B 0
41 *2051:B *213:20 0.000150023
42 *2078:B *2069:A_N 1.17091e-05
43 *2143:B2 *2143:A1 3.08382e-06
44 *2150:A1 *2142:A1 2.06112e-05
45 *2150:A1 *2143:A1 8.64617e-05
46 *2150:A2 *2143:A1 0.000645159
47 *2197:CLK *2074:B 0.000138881
48 *2243:A *2142:A1 7.83659e-05
49 *2245:A *2069:A_N 0.000169844
50 *2245:A *213:58 0.000172672
51 *2248:A *2105:B 0.000226513
52 *2249:A *213:20 7.58841e-05
53 *2249:A *213:58 4.46701e-05
54 *4:18 *213:20 3.3426e-05
55 *4:25 *213:20 8.31151e-05
56 *4:34 *213:20 3.20038e-05
57 *42:27 *2143:A1 1.36077e-05
58 *88:12 *2074:B 4.79842e-05
59 *93:8 *2063:B 6.26774e-06
60 *93:8 *2069:A_N 0.000434115
61 *120:10 *2105:B 3.99614e-06
62 *125:41 *213:8 0.000180202
63 *140:19 *2143:A1 1.34282e-05
64 *140:43 *2143:A1 0
65 *140:62 *2069:A_N 6.05161e-06
66 *161:54 *2074:B 5.76372e-05
67 *161:54 *213:92 1.87955e-05
68 *161:54 *213:103 6.04256e-05
69 *162:10 *213:88 5.52238e-05
70 *162:14 *213:20 0
71 *175:11 *2142:A1 4.25716e-05
72 *175:11 *2143:A1 1.2662e-05
73 *175:11 *213:20 0.000175699
74 *175:47 *213:20 5.03757e-05
*RES
1 *2242:X *213:8 15.5679 
2 *213:8 *213:20 20.4821 
3 *213:20 *2142:A1 15.4429 
4 *213:20 *2143:A1 24.924 
5 *213:8 *213:58 3.82143 
6 *213:58 *213:60 4.5 
7 *213:60 *213:62 0.535714 
8 *213:62 *2105:B 20.3893 
9 *213:62 *2039:B 9.3 
10 *213:60 *213:88 3.03571 
11 *213:88 *213:92 5.23214 
12 *213:92 *2040:B 15.5679 
13 *213:92 *213:103 2.25 
14 *213:103 *2063:B 13.9295 
15 *213:103 *2074:B 18.3536 
16 *213:88 *2041:C 9.3 
17 *213:58 *2069:A_N 22.9071 
*END

*D_NET *214 0.000313009
*CONN
*I *2195:D I *D sky130_fd_sc_hd__dfrtp_1
*I *2243:X O *D sky130_fd_sc_hd__dlygate4sd3_1
*CAP
1 *2195:D 0.00012175
2 *2243:X 0.00012175
3 *2195:D *219:16 4.95491e-06
4 *140:43 *2195:D 6.45537e-05
*RES
1 *2243:X *2195:D 29.7786 
*END

*D_NET *215 0.00253962
*CONN
*I *2346:A I *D sky130_fd_sc_hd__buf_2
*I *2277:A I *D sky130_fd_sc_hd__dlygate4sd3_1
*I *2172:Q O *D sky130_fd_sc_hd__dfrtp_1
*CAP
1 *2346:A 0.000892182
2 *2277:A 0.000110591
3 *2172:Q 0.000200079
4 *215:10 0.00120285
5 *2346:A *2073:A 6.42242e-05
6 *2346:A *2073:B 0
7 *2346:A *2365:A 0
8 *215:10 *2077:B1 2.79092e-05
9 *215:10 *2172:RESET_B 4.17828e-05
10 *215:10 *281:197 0
11 *2278:A *2346:A 0
12 *2278:A *215:10 0
*RES
1 *2172:Q *215:10 17.1036 
2 *215:10 *2277:A 15.5679 
3 *215:10 *2346:A 30.6214 
*END

*D_NET *216 0.00686856
*CONN
*I *2074:A I *D sky130_fd_sc_hd__nand2_1
*I *2063:A_N I *D sky130_fd_sc_hd__nand2b_1
*I *2069:B I *D sky130_fd_sc_hd__nand2b_1
*I *2041:B I *D sky130_fd_sc_hd__or4_1
*I *2040:A I *D sky130_fd_sc_hd__nor3_1
*I *2039:A I *D sky130_fd_sc_hd__nor2_1
*I *2144:A I *D sky130_fd_sc_hd__nor2_1
*I *2105:C I *D sky130_fd_sc_hd__nand4b_1
*I *2244:X O *D sky130_fd_sc_hd__dlygate4sd3_1
*CAP
1 *2074:A 5.62399e-05
2 *2063:A_N 1.11927e-05
3 *2069:B 0.000275825
4 *2041:B 0.000116922
5 *2040:A 0
6 *2039:A 1.99857e-05
7 *2144:A 6.40208e-05
8 *2105:C 3.96749e-05
9 *2244:X 0
10 *216:63 0.000431126
11 *216:59 0.000328894
12 *216:46 0.00028371
13 *216:39 0.00017343
14 *216:30 0.000325041
15 *216:8 0.000329671
16 *216:4 0.000395843
17 *2069:B *2197:D 2.87584e-05
18 *2144:A *2105:A_N 2.21077e-05
19 *216:39 *2041:D 5.52238e-05
20 *216:39 *229:12 0.000142856
21 *216:59 *229:12 1.74352e-05
22 *2040:B *2041:B 9.80173e-05
23 *2040:B *216:39 0.000183726
24 *2063:B *2069:B 1.28809e-05
25 *2069:A_N *2069:B 3.70716e-05
26 *2105:B *216:8 0.000509033
27 *2105:B *216:30 8.17447e-05
28 *2137:A1 *2144:A 0
29 *2146:A2 *2105:C 8.25098e-05
30 *2146:A2 *2144:A 9.30022e-05
31 *2149:B1 *2105:C 7.83587e-05
32 *2149:B1 *2144:A 0.000128161
33 *2245:A *2069:B 0.000497129
34 *2248:A *216:30 0.000224596
35 *2249:A *2069:B 0.000266486
36 *2256:A *2074:A 3.28897e-05
37 *2256:A *216:59 1.19309e-05
38 *93:8 *2069:B 0.000178952
39 *93:8 *216:63 9.58508e-05
40 *97:14 *2074:A 0.000153054
41 *97:14 *216:59 0.000173804
42 *160:14 *216:8 0.000268775
43 *160:14 *216:30 0.000393251
44 *161:54 *2074:A 6.91215e-06
45 *161:54 *216:59 0
46 *213:62 *216:30 2.59355e-05
47 *213:88 *2039:A 1.04232e-05
48 *213:88 *216:30 8.43535e-06
49 *213:88 *216:39 9.76689e-05
*RES
1 *2244:X *216:4 9.3 
2 *216:4 *216:8 10.375 
3 *216:8 *2105:C 14.8357 
4 *216:8 *2144:A 16.05 
5 *216:4 *216:30 5.07143 
6 *216:30 *2039:A 9.72857 
7 *216:30 *216:39 4.23214 
8 *216:39 *2040:A 9.3 
9 *216:39 *216:46 0.732143 
10 *216:46 *2041:B 11.0679 
11 *216:46 *216:59 7.28571 
12 *216:59 *216:63 7.08929 
13 *216:63 *2069:B 17.5054 
14 *216:63 *2063:A_N 9.72857 
15 *216:59 *2074:A 15.7464 
*END

*D_NET *217 0.0013862
*CONN
*I *2146:B1 I *D sky130_fd_sc_hd__a21oi_1
*I *2245:X O *D sky130_fd_sc_hd__dlygate4sd3_1
*CAP
1 *2146:B1 0.000342869
2 *2245:X 0.000342869
3 *2146:B1 *222:16 0.000313706
4 *2194:CLK *2146:B1 5.49544e-05
5 *2195:CLK *2146:B1 0.000230432
6 *2246:A *2146:B1 7.20217e-06
7 *125:41 *2146:B1 9.41642e-05
*RES
1 *2245:X *2146:B1 35.2071 
*END

*D_NET *218 0.000572712
*CONN
*I *2196:D I *D sky130_fd_sc_hd__dfrtp_1
*I *2246:X O *D sky130_fd_sc_hd__dlygate4sd3_1
*CAP
1 *2196:D 0.000159179
2 *2246:X 0.000159179
3 *2196:D *219:33 0.000126416
4 *124:25 *2196:D 0.000127939
*RES
1 *2246:X *2196:D 30.6 
*END

*D_NET *219 0.0113576
*CONN
*I *2051:A I *D sky130_fd_sc_hd__nand2_1
*I *2038:A I *D sky130_fd_sc_hd__inv_1
*I *2138:A1 I *D sky130_fd_sc_hd__a311oi_1
*I *2148:A I *D sky130_fd_sc_hd__nand2_1
*I *2145:A I *D sky130_fd_sc_hd__nand3_1
*I *2152:A I *D sky130_fd_sc_hd__or2_0
*I *2247:X O *D sky130_fd_sc_hd__dlygate4sd3_1
*CAP
1 *2051:A 0.000231038
2 *2038:A 2.60442e-05
3 *2138:A1 9.78461e-05
4 *2148:A 0.000324107
5 *2145:A 4.60868e-05
6 *2152:A 0.00054629
7 *2247:X 0
8 *219:33 0.00088087
9 *219:20 0.00109514
10 *219:16 0.00118121
11 *219:6 0.00110112
12 *219:4 0.000260923
13 *2051:A *2129:B2 5.71472e-05
14 *2152:A *2047:A 0.000527085
15 *219:16 *279:14 0.000137983
16 *2051:B *2051:A 0.000406348
17 *2137:A1 *2148:A 0.000196262
18 *2137:A1 *219:33 0.000198698
19 *2138:A2 *2138:A1 0.0001399
20 *2138:A2 *2152:A 9.41918e-05
21 *2138:A3 *2138:A1 0.00010096
22 *2138:C1 *2138:A1 3.9846e-05
23 *2138:C1 *219:16 1.02821e-05
24 *2141:C *2138:A1 0
25 *2141:C *219:16 9.60939e-05
26 *2142:A1 *219:16 9.16325e-06
27 *2145:B *2145:A 9.60939e-05
28 *2146:A1 *219:33 0
29 *2146:A2 *219:33 0
30 *2148:B *2148:A 0.000484654
31 *2151:A2 *2152:A 0
32 *2151:A3 *2152:A 0
33 *2152:B *2152:A 0.00010096
34 *2195:D *219:16 4.95491e-06
35 *2196:D *219:33 0.000126416
36 *2243:A *219:16 0.000129944
37 *2248:A *2148:A 4.50349e-06
38 *2251:A *2152:A 6.65398e-05
39 *2339:A *2138:A1 5.52302e-05
40 *4:34 *2051:A 0.000205966
41 *42:39 *2152:A 0.000173804
42 *81:22 *2152:A 0.000110843
43 *85:8 *2152:A 7.57869e-05
44 *88:18 *2148:A 0.000297341
45 *93:56 *2148:A 1.21258e-05
46 *124:14 *219:33 1.73501e-05
47 *124:25 *219:33 0.000321077
48 *124:61 *2148:A 9.97648e-05
49 *124:61 *219:33 0.000131491
50 *140:43 *219:16 0
51 *157:23 *2148:A 0.000268403
52 *159:8 *219:16 9.22551e-05
53 *159:38 *2038:A 2.99125e-05
54 *159:38 *2051:A 4.43256e-05
55 *159:38 *219:6 2.14658e-05
56 *159:38 *219:16 2.29534e-05
57 *164:21 *2152:A 0
58 *177:109 *219:33 0
59 *207:57 *2152:A 0
60 *207:67 *2152:A 0.000479727
61 *207:67 *219:33 7.90803e-05
*RES
1 *2247:X *219:4 9.3 
2 *219:4 *219:6 0.535714 
3 *219:6 *219:16 22.5 
4 *219:16 *219:20 5.03571 
5 *219:20 *2152:A 28.9429 
6 *219:20 *219:33 13.1786 
7 *219:33 *2145:A 14.7464 
8 *219:33 *2148:A 24.7107 
9 *219:16 *2138:A1 12.3357 
10 *219:6 *2038:A 10.0098 
11 *219:4 *2051:A 25.0679 
*END

*D_NET *220 0.000800848
*CONN
*I *2149:A2 I *D sky130_fd_sc_hd__a21oi_1
*I *2248:X O *D sky130_fd_sc_hd__dlygate4sd3_1
*CAP
1 *2149:A2 0.000286613
2 *2248:X 0.000286613
3 *2105:B *2149:A2 2.81111e-05
4 *2249:A *2149:A2 1.83053e-05
5 *4:10 *2149:A2 0.000181204
*RES
1 *2248:X *2149:A2 33.0464 
*END

*D_NET *221 0.00102291
*CONN
*I *2197:D I *D sky130_fd_sc_hd__dfrtp_1
*I *2249:X O *D sky130_fd_sc_hd__dlygate4sd3_1
*CAP
1 *2197:D 0.000374497
2 *2249:X 0.000374497
3 *2197:D *2197:RESET_B 7.6644e-05
4 *2069:B *2197:D 2.87584e-05
5 *2197:CLK *2197:D 0.000113295
6 *2245:A *2197:D 5.52238e-05
7 *175:47 *2197:D 0
*RES
1 *2249:X *2197:D 33.0107 
*END

*D_NET *222 0.016384
*CONN
*I *2064:A I *D sky130_fd_sc_hd__or3_1
*I *2070:A I *D sky130_fd_sc_hd__or3_1
*I *2129:B2 I *D sky130_fd_sc_hd__a32oi_1
*I *2151:B2 I *D sky130_fd_sc_hd__a32o_1
*I *2075:A I *D sky130_fd_sc_hd__or3_1
*I *2120:A1 I *D sky130_fd_sc_hd__o21ai_0
*I *2094:A I *D sky130_fd_sc_hd__nand2_1
*I *2080:A1 I *D sky130_fd_sc_hd__o31ai_1
*I *2036:A I *D sky130_fd_sc_hd__inv_1
*I *2105:D I *D sky130_fd_sc_hd__nand4b_1
*I *2041:A I *D sky130_fd_sc_hd__or4_1
*I *2250:X O *D sky130_fd_sc_hd__dlygate4sd3_1
*CAP
1 *2064:A 4.64627e-05
2 *2070:A 0.000186543
3 *2129:B2 0.000527543
4 *2151:B2 0.000179649
5 *2075:A 0.000573704
6 *2120:A1 3.77738e-05
7 *2094:A 8.0308e-05
8 *2080:A1 0
9 *2036:A 0
10 *2105:D 0.000299554
11 *2041:A 0.00035967
12 *2250:X 3.13015e-05
13 *222:148 0.000274817
14 *222:113 0.000892452
15 *222:84 0.00044555
16 *222:78 0.0010124
17 *222:71 0.000259058
18 *222:58 0.000697382
19 *222:37 0.000949905
20 *222:16 0.000945287
21 *222:6 0.00074319
22 *2041:A *2197:RESET_B 1.69115e-05
23 *2041:A *282:409 0.000225527
24 *2064:A *2075:B 2.59355e-05
25 *2070:A *2070:B 0.000305915
26 *2070:A *229:112 5.66157e-05
27 *2129:B2 *2042:B 0.000137983
28 *2129:B2 *2128:B 0
29 *2151:B2 *282:351 0.000165303
30 *222:6 *280:16 0.000140856
31 *222:16 *280:16 1.32056e-05
32 *222:58 *2147:B1 0.000148189
33 *222:58 *229:30 2.59355e-05
34 *222:58 *229:32 0.000156494
35 *222:58 *229:73 0.000191403
36 *222:84 *270:14 0.000171206
37 *222:148 *2075:B 5.33334e-05
38 *2051:A *2129:B2 5.71472e-05
39 *2052:B *2151:B2 3.17148e-05
40 *2057:C1 *2151:B2 0.000269372
41 *2064:C *2064:A 2.14658e-05
42 *2064:C *2075:A 0.000446603
43 *2064:C *222:148 7.61932e-05
44 *2105:B *2105:D 0.000136365
45 *2120:A2 *2094:A 0.000136676
46 *2120:A2 *2120:A1 0.000126778
47 *2129:A1 *2129:B2 3.99614e-06
48 *2129:B1 *2129:B2 0.000137515
49 *2130:A3 *2129:B2 0.00014183
50 *2143:A1 *222:16 5.27696e-05
51 *2143:B2 *222:6 4.35597e-05
52 *2143:B2 *222:16 5.33334e-05
53 *2143:B2 *222:113 1.49841e-05
54 *2146:A1 *222:16 0
55 *2146:B1 *222:16 0.000313706
56 *2150:A1 *222:16 9.59532e-06
57 *2150:A2 *222:16 2.34837e-05
58 *2244:A *222:37 7.62718e-05
59 *2244:A *222:58 4.90803e-05
60 *2245:A *2041:A 0.00026454
61 *2250:A *2129:B2 7.84241e-05
62 *42:10 *2129:B2 0.000180777
63 *83:10 *2129:B2 0.000332298
64 *83:10 *2151:B2 0.000101545
65 *85:19 *222:6 1.59373e-05
66 *98:10 *2070:A 0
67 *98:10 *2075:A 1.92905e-05
68 *100:34 *222:71 5.66657e-05
69 *100:34 *222:84 0
70 *125:41 *2041:A 0.000751587
71 *125:41 *222:16 1.6271e-05
72 *125:41 *222:37 2.98459e-05
73 *140:43 *222:16 0.000586932
74 *140:62 *222:16 0.000185305
75 *140:62 *222:37 0.000145119
76 *140:62 *222:58 0.000191403
77 *157:23 *222:58 0
78 *157:23 *222:71 4.46186e-06
79 *160:14 *222:58 0.000125235
80 *161:8 *2041:A 0
81 *161:54 *2041:A 0
82 *161:54 *2070:A 0
83 *161:54 *2094:A 5.33005e-05
84 *161:54 *2120:A1 9.66977e-05
85 *161:54 *222:84 2.36238e-05
86 *162:10 *2041:A 0.000125137
87 *177:99 *2151:B2 2.82057e-05
88 *177:99 *222:113 2.58997e-05
89 *177:109 *222:16 0
90 *177:109 *222:113 0
91 *180:10 *2070:A 6.42242e-05
92 *180:19 *2070:A 5.80706e-06
93 *181:86 *222:78 8.30431e-05
94 *181:86 *222:84 0.000171484
95 *181:127 *222:84 1.08359e-05
96 *213:92 *2041:A 1.02504e-05
*RES
1 *2250:X *222:6 10.6571 
2 *222:6 *222:16 17.7679 
3 *222:16 *2041:A 33.5321 
4 *222:16 *222:37 1.94643 
5 *222:37 *2105:D 17.9429 
6 *222:37 *222:58 16.6384 
7 *222:58 *2036:A 9.3 
8 *222:58 *222:71 11.25 
9 *222:71 *2080:A1 9.3 
10 *222:71 *222:78 3 
11 *222:78 *222:84 16.4107 
12 *222:84 *2094:A 11.0857 
13 *222:84 *2120:A1 10.6571 
14 *222:78 *2075:A 19.6929 
15 *222:6 *222:113 7.78571 
16 *222:113 *2151:B2 19.05 
17 *222:113 *2129:B2 27.2464 
18 *2075:A *222:148 10.6571 
19 *222:148 *2070:A 22.9786 
20 *222:148 *2064:A 10.2464 
*END

*D_NET *223 0.0002747
*CONN
*I *2198:D I *D sky130_fd_sc_hd__dfrtp_1
*I *2251:X O *D sky130_fd_sc_hd__dlygate4sd3_1
*CAP
1 *2198:D 7.35559e-05
2 *2251:X 7.35559e-05
3 *177:99 *2198:D 7.09928e-05
4 *177:109 *2198:D 5.65955e-05
*RES
1 *2251:X *2198:D 20.3679 
*END

*D_NET *224 0.000646002
*CONN
*I *2317:A I *D sky130_fd_sc_hd__dlygate4sd3_1
*I *2252:X O *D sky130_fd_sc_hd__dlygate4sd3_1
*CAP
1 *2317:A 0.000171263
2 *2252:X 0.000171263
3 *2317:A *280:55 1.74137e-05
4 *2159:B1 *2317:A 6.05161e-06
5 *2160:B *2317:A 2.71964e-05
6 *150:14 *2317:A 0.000201814
7 *151:10 *2317:A 5.09999e-05
*RES
1 *2252:X *2317:A 30.9036 
*END

*D_NET *225 0.00153418
*CONN
*I *2047:A I *D sky130_fd_sc_hd__nor2b_1
*I *2253:X O *D sky130_fd_sc_hd__dlygate4sd3_1
*CAP
1 *2047:A 0.000231308
2 *2253:X 0.000231308
3 *2152:A *2047:A 0.000527085
4 *81:22 *2047:A 0.000367245
5 *85:8 *2047:A 0.000177234
6 *210:24 *2047:A 0
*RES
1 *2253:X *2047:A 34.9393 
*END

*D_NET *226 0.00510084
*CONN
*I *2314:A I *D sky130_fd_sc_hd__dlygate4sd3_1
*I *2347:A I *D sky130_fd_sc_hd__buf_2
*I *2173:Q O *D sky130_fd_sc_hd__dfrtp_1
*CAP
1 *2314:A 0.000212941
2 *2347:A 0.00233748
3 *2173:Q 0
4 *226:4 0.00255042
*RES
1 *2173:Q *226:4 9.3 
2 *226:4 *2347:A 43.9607 
3 *226:4 *2314:A 21.7107 
*END

*D_NET *227 0.000456716
*CONN
*I *2049:B1 I *D sky130_fd_sc_hd__a21o_1
*I *2254:X O *D sky130_fd_sc_hd__dlygate4sd3_1
*CAP
1 *2049:B1 0.000228358
2 *2254:X 0.000228358
*RES
1 *2254:X *2049:B1 22.0286 
*END

*D_NET *228 0.000335762
*CONN
*I *2201:D I *D sky130_fd_sc_hd__dfrtp_1
*I *2255:X O *D sky130_fd_sc_hd__dlygate4sd3_1
*CAP
1 *2201:D 0.000140266
2 *2255:X 0.000140266
3 *2201:D *2201:RESET_B 0
4 *2201:D *261:23 5.52302e-05
*RES
1 *2255:X *2201:D 29.475 
*END

*D_NET *229 0.0106477
*CONN
*I *2070:B I *D sky130_fd_sc_hd__or3_1
*I *2064:B I *D sky130_fd_sc_hd__or3_1
*I *2075:B I *D sky130_fd_sc_hd__or3_1
*I *2078:A I *D sky130_fd_sc_hd__nand2_1
*I *2105:A_N I *D sky130_fd_sc_hd__nand4b_1
*I *2147:B1 I *D sky130_fd_sc_hd__a21oi_1
*I *2079:B I *D sky130_fd_sc_hd__nand2_1
*I *2101:B I *D sky130_fd_sc_hd__or3_1
*I *2097:B I *D sky130_fd_sc_hd__or3_1
*I *2040:C I *D sky130_fd_sc_hd__nor3_1
*I *2041:D I *D sky130_fd_sc_hd__or4_1
*I *2256:X O *D sky130_fd_sc_hd__dlygate4sd3_1
*CAP
1 *2070:B 0.000201722
2 *2064:B 0
3 *2075:B 0.000108353
4 *2078:A 0
5 *2105:A_N 0.000169107
6 *2147:B1 7.95356e-05
7 *2079:B 4.12305e-05
8 *2101:B 2.23854e-05
9 *2097:B 0.000520792
10 *2040:C 0
11 *2041:D 2.50265e-05
12 *2256:X 0
13 *229:114 0.000108353
14 *229:112 0.000393429
15 *229:90 0.000359024
16 *229:73 0.000396099
17 *229:32 0.000729799
18 *229:30 0.000612921
19 *229:26 0.00072007
20 *229:12 0.000342409
21 *229:6 0.000504863
22 *2064:A *2075:B 2.59355e-05
23 *2070:A *2070:B 0.000305915
24 *2070:A *229:112 5.66157e-05
25 *2075:C *229:26 3.0285e-05
26 *2075:C *229:112 7.67408e-05
27 *2079:A *229:32 2.59355e-05
28 *2082:A2 *2097:B 5.52302e-05
29 *2083:A2 *229:30 0.000660801
30 *2101:C *2079:B 4.22908e-05
31 *2101:C *229:32 1.39726e-05
32 *2102:A2 *2097:B 0
33 *2106:A1 *2097:B 0
34 *2122:A1 *2097:B 0
35 *2122:A2 *2097:B 0.000338252
36 *2122:A2 *229:32 5.74499e-06
37 *2122:B1 *2097:B 1.52978e-05
38 *2135:B *2097:B 0
39 *2144:A *2105:A_N 2.21077e-05
40 *2144:B *2105:A_N 3.27526e-05
41 *2144:B *2147:B1 3.65737e-06
42 *2144:B *229:90 2.16833e-05
43 *2145:C *229:90 0
44 *2148:B *229:90 0.00027068
45 *2149:B1 *2105:A_N 0.00017309
46 *88:26 *2097:B 6.2589e-06
47 *93:56 *229:90 0.000128787
48 *94:10 *2070:B 0
49 *97:14 *229:12 0.000126843
50 *97:14 *229:26 6.85604e-05
51 *100:23 *229:73 0
52 *100:23 *229:90 3.2534e-05
53 *101:6 *229:30 0.00133548
54 *101:6 *229:32 0.000437193
55 *140:62 *2105:A_N 2.89791e-06
56 *157:6 *229:32 1.05271e-05
57 *160:14 *2147:B1 9.25014e-06
58 *161:54 *229:112 0
59 *180:19 *2070:B 3.01126e-05
60 *181:24 *2070:B 0
61 *181:26 *2070:B 0
62 *181:26 *229:112 0
63 *181:28 *229:12 0
64 *181:28 *229:26 0
65 *181:28 *229:112 0
66 *181:30 *229:12 0
67 *181:100 *2097:B 0.000156286
68 *216:39 *2041:D 5.52238e-05
69 *216:39 *229:12 0.000142856
70 *216:59 *229:12 1.74352e-05
71 *222:58 *2147:B1 0.000148189
72 *222:58 *229:30 2.59355e-05
73 *222:58 *229:32 0.000156494
74 *222:58 *229:73 0.000191403
75 *222:148 *2075:B 5.33334e-05
*RES
1 *2256:X *229:6 13.8 
2 *229:6 *229:12 11.375 
3 *229:12 *2041:D 9.83571 
4 *229:12 *2040:C 9.3 
5 *229:6 *229:26 3.76786 
6 *229:26 *229:30 17.3571 
7 *229:30 *229:32 5.05357 
8 *229:32 *2097:B 27.4964 
9 *229:32 *2101:B 9.72857 
10 *229:32 *2079:B 10.6929 
11 *229:30 *229:73 7.05357 
12 *229:73 *2147:B1 15.7464 
13 *229:73 *229:90 13.5357 
14 *229:90 *2105:A_N 17.3179 
15 *229:90 *2078:A 13.8 
16 *229:26 *229:112 3.76786 
17 *229:112 *229:114 4.5 
18 *229:114 *2075:B 10.6571 
19 *229:114 *2064:B 9.3 
20 *229:112 *2070:B 18.7821 
*END

*D_NET *230 0.00190837
*CONN
*I *2042:B I *D sky130_fd_sc_hd__nor2_2
*I *2257:X O *D sky130_fd_sc_hd__dlygate4sd3_1
*CAP
1 *2042:B 0.000342215
2 *2257:X 0.000342215
3 *2042:B *2341:A 0
4 *2042:B *279:73 0
5 *2042:B *280:16 2.16719e-05
6 *2129:B1 *2042:B 0.000639079
7 *2129:B2 *2042:B 0.000137983
8 *42:10 *2042:B 0.000309833
9 *161:8 *2042:B 0.000115369
10 *173:11 *2042:B 0
*RES
1 *2257:X *2042:B 37.8857 
*END

*D_NET *231 0.000314511
*CONN
*I *2341:A I *D sky130_fd_sc_hd__buf_6
*I *2258:X O *D sky130_fd_sc_hd__dlygate4sd3_1
*CAP
1 *2341:A 0.000157255
2 *2258:X 0.000157255
3 *2042:B *2341:A 0
4 *2130:B1 *2341:A 0
5 *108:10 *2341:A 0
*RES
1 *2258:X *2341:A 30.1893 
*END

*D_NET *232 0.000635762
*CONN
*I *2286:A I *D sky130_fd_sc_hd__dlygate4sd3_1
*I *2259:X O *D sky130_fd_sc_hd__dlygate4sd3_1
*CAP
1 *2286:A 0.000268362
2 *2259:X 0.000268362
3 *2286:A *2110:S 9.90367e-05
4 *2286:A *2356:A 0
*RES
1 *2259:X *2286:A 32.6179 
*END

*D_NET *233 0.000274854
*CONN
*I *2287:A I *D sky130_fd_sc_hd__dlygate4sd3_1
*I *2260:X O *D sky130_fd_sc_hd__dlygate4sd3_1
*CAP
1 *2287:A 3.75945e-05
2 *2260:X 3.75945e-05
3 *2287:A *2354:A 0.000129868
4 *2287:A *2356:A 6.97972e-05
*RES
1 *2260:X *2287:A 29.2429 
*END

*D_NET *234 0.000638043
*CONN
*I *2312:A I *D sky130_fd_sc_hd__dlygate4sd3_1
*I *2261:X O *D sky130_fd_sc_hd__dlygate4sd3_1
*CAP
1 *2312:A 0.000305462
2 *2261:X 0.000305462
3 *2312:A *2181:RESET_B 2.71192e-05
*RES
1 *2261:X *2312:A 32.6179 
*END

*D_NET *235 0.000577054
*CONN
*I *2313:A I *D sky130_fd_sc_hd__dlygate4sd3_1
*I *2262:X O *D sky130_fd_sc_hd__dlygate4sd3_1
*CAP
1 *2313:A 0.000223927
2 *2262:X 0.000223927
3 *2313:A *281:37 0
4 *2262:A *2313:A 0.0001292
*RES
1 *2262:X *2313:A 31.8321 
*END

*D_NET *236 0.000203484
*CONN
*I *2319:A I *D sky130_fd_sc_hd__dlygate4sd3_1
*I *2263:X O *D sky130_fd_sc_hd__dlygate4sd3_1
*CAP
1 *2319:A 0.000101742
2 *2263:X 0.000101742
3 *2319:A *270:14 0
*RES
1 *2263:X *2319:A 29.2429 
*END

*D_NET *237 0.00362556
*CONN
*I *2348:A I *D sky130_fd_sc_hd__buf_2
*I *2300:A I *D sky130_fd_sc_hd__dlygate4sd3_1
*I *2174:Q O *D sky130_fd_sc_hd__dfrtp_1
*CAP
1 *2348:A 0.000901078
2 *2300:A 0.000162192
3 *2174:Q 2.23854e-05
4 *237:6 0.00108566
5 *2300:A *2174:RESET_B 0
6 *2300:A *271:10 2.89114e-05
7 *2348:A *271:10 0.00142534
*RES
1 *2174:Q *237:6 9.72857 
2 *237:6 *2300:A 21.0857 
3 *237:6 *2348:A 33.6571 
*END

*D_NET *238 0.000524897
*CONN
*I *2323:A I *D sky130_fd_sc_hd__dlygate4sd3_1
*I *2264:X O *D sky130_fd_sc_hd__dlygate4sd3_1
*CAP
1 *2323:A 0.000158739
2 *2264:X 0.000158739
3 *2323:A *2264:A 7.88091e-05
4 *2323:A *2364:A 0.000128609
*RES
1 *2264:X *2323:A 30.6 
*END

*D_NET *239 0.000282304
*CONN
*I *2321:A I *D sky130_fd_sc_hd__dlygate4sd3_1
*I *2265:X O *D sky130_fd_sc_hd__dlygate4sd3_1
*CAP
1 *2321:A 0.000107811
2 *2265:X 0.000107811
3 *2133:B *2321:A 6.66813e-05
*RES
1 *2265:X *2321:A 29.7786 
*END

*D_NET *240 0.000466685
*CONN
*I *2327:A I *D sky130_fd_sc_hd__dlygate4sd3_1
*I *2266:X O *D sky130_fd_sc_hd__dlygate4sd3_1
*CAP
1 *2327:A 0.000175576
2 *2266:X 0.000175576
3 *2327:A *2354:A 4.57352e-05
4 *2327:A *2357:A 6.97972e-05
*RES
1 *2266:X *2327:A 30.6 
*END

*D_NET *241 0.000465174
*CONN
*I *2325:A I *D sky130_fd_sc_hd__dlygate4sd3_1
*I *2267:X O *D sky130_fd_sc_hd__dlygate4sd3_1
*CAP
1 *2325:A 0.000179992
2 *2267:X 0.000179992
3 *2325:A *281:175 4.37999e-05
4 *94:10 *2325:A 6.13903e-05
*RES
1 *2267:X *2325:A 30.6 
*END

*D_NET *242 0.000500576
*CONN
*I *2215:A I *D sky130_fd_sc_hd__dlygate4sd3_1
*I *2268:X O *D sky130_fd_sc_hd__dlygate4sd3_1
*CAP
1 *2215:A 0.000189646
2 *2268:X 0.000189646
3 *2215:A *2179:D 0
4 *2104:A2 *2215:A 0
5 *2135:A *2215:A 1.76135e-05
6 *2305:A *2215:A 0
7 *179:16 *2215:A 4.88223e-05
8 *179:22 *2215:A 5.48488e-05
*RES
1 *2268:X *2215:A 31.6714 
*END

*D_NET *243 0.000315485
*CONN
*I *2329:A I *D sky130_fd_sc_hd__dlygate4sd3_1
*I *2269:X O *D sky130_fd_sc_hd__dlygate4sd3_1
*CAP
1 *2329:A 0.000157742
2 *2269:X 0.000157742
*RES
1 *2269:X *2329:A 30.1893 
*END

*D_NET *244 7.50964e-05
*CONN
*I *2331:A I *D sky130_fd_sc_hd__dlygate4sd3_1
*I *2270:X O *D sky130_fd_sc_hd__dlygate4sd3_1
*CAP
1 *2331:A 3.75482e-05
2 *2270:X 3.75482e-05
*RES
1 *2270:X *2331:A 19.1357 
*END

*D_NET *245 0.00112716
*CONN
*I *2217:A I *D sky130_fd_sc_hd__dlygate4sd3_1
*I *2271:X O *D sky130_fd_sc_hd__dlygate4sd3_1
*CAP
1 *2217:A 0.00044126
2 *2271:X 0.00044126
3 *2217:A *2110:S 0
4 *2217:A *2259:A 5.70551e-05
5 *2217:A *259:10 2.56601e-05
6 *2217:A *277:200 0
7 *2109:A1 *2217:A 8.61222e-05
8 *186:10 *2217:A 7.5802e-05
*RES
1 *2271:X *2217:A 35.8679 
*END

*D_NET *246 0.000679009
*CONN
*I *2219:A I *D sky130_fd_sc_hd__dlygate4sd3_1
*I *2272:X O *D sky130_fd_sc_hd__dlygate4sd3_1
*CAP
1 *2219:A 0.000237217
2 *2272:X 0.000237217
3 *2219:A *270:6 5.45307e-05
4 *2120:A2 *2219:A 0.000150043
5 *181:127 *2219:A 0
*RES
1 *2272:X *2219:A 31.5464 
*END

*D_NET *247 6.4936e-05
*CONN
*I *2221:A I *D sky130_fd_sc_hd__dlygate4sd3_1
*I *2273:X O *D sky130_fd_sc_hd__dlygate4sd3_1
*CAP
1 *2221:A 3.2468e-05
2 *2273:X 3.2468e-05
*RES
1 *2273:X *2221:A 19.1357 
*END

*D_NET *248 0.00384725
*CONN
*I *2306:A I *D sky130_fd_sc_hd__dlygate4sd3_1
*I *2349:A I *D sky130_fd_sc_hd__buf_2
*I *2175:Q O *D sky130_fd_sc_hd__dfrtp_1
*CAP
1 *2306:A 0
2 *2349:A 0.00102646
3 *2175:Q 0.00019334
4 *248:6 0.0012198
5 *2349:A *272:25 0.00138492
6 *248:6 *2087:A 2.27416e-05
7 *2307:A *2349:A 0
*RES
1 *2175:Q *248:6 12.7107 
2 *248:6 *2349:A 44.3893 
3 *248:6 *2306:A 9.3 
*END

*D_NET *249 0.000703475
*CONN
*I *2228:A I *D sky130_fd_sc_hd__dlygate4sd3_1
*I *2274:X O *D sky130_fd_sc_hd__dlygate4sd3_1
*CAP
1 *2228:A 0.000245892
2 *2274:X 0.000245892
3 *2228:A *282:365 0.000124749
4 *2056:A *2228:A 7.27183e-05
5 *2056:B *2228:A 1.42249e-05
*RES
1 *2274:X *2228:A 32.4393 
*END

*D_NET *250 0.00048663
*CONN
*I *2226:A I *D sky130_fd_sc_hd__dlygate4sd3_1
*I *2275:X O *D sky130_fd_sc_hd__dlygate4sd3_1
*CAP
1 *2226:A 0.000243315
2 *2275:X 0.000243315
3 *2226:A *2189:RESET_B 0
4 *2226:A *2275:A 0
5 *2302:A *2226:A 0
*RES
1 *2275:X *2226:A 31.6714 
*END

*D_NET *251 6.37568e-05
*CONN
*I *2223:A I *D sky130_fd_sc_hd__dlygate4sd3_1
*I *2276:X O *D sky130_fd_sc_hd__dlygate4sd3_1
*CAP
1 *2223:A 3.18784e-05
2 *2276:X 3.18784e-05
*RES
1 *2276:X *2223:A 19.1357 
*END

*D_NET *252 0.00387254
*CONN
*I *2350:A I *D sky130_fd_sc_hd__buf_2
*I *2297:A I *D sky130_fd_sc_hd__dlygate4sd3_1
*I *2176:Q O *D sky130_fd_sc_hd__dfrtp_1
*CAP
1 *2350:A 0.00172115
2 *2297:A 0.000128948
3 *2176:Q 8.61686e-05
4 *252:6 0.00193627
5 *2297:A *277:122 0
*RES
1 *2176:Q *252:6 10.6571 
2 *252:6 *2297:A 20.55 
3 *252:6 *2350:A 38.3179 
*END

*D_NET *253 0.00261398
*CONN
*I *2351:A I *D sky130_fd_sc_hd__buf_2
*I *2283:A I *D sky130_fd_sc_hd__dlygate4sd3_1
*I *2177:Q O *D sky130_fd_sc_hd__dfrtp_1
*CAP
1 *2351:A 0.000976438
2 *2283:A 0.000112752
3 *2177:Q 0.000153069
4 *253:10 0.00124226
5 *2351:A *2093:A 6.74911e-05
6 *2351:A *2370:A 0
7 *253:10 *2370:A 0
8 trial_code[4] *2351:A 3.11088e-05
9 *2172:CLK *253:10 3.08664e-05
10 *2284:A *2351:A 0
11 *2284:A *253:10 0
*RES
1 *2177:Q *253:10 16.2821 
2 *253:10 *2283:A 15.5679 
3 *253:10 *2351:A 31.9786 
*END

*D_NET *254 0.00336757
*CONN
*I *2352:A I *D sky130_fd_sc_hd__buf_2
*I *2288:A I *D sky130_fd_sc_hd__dlygate4sd3_1
*I *2178:Q O *D sky130_fd_sc_hd__dfrtp_1
*CAP
1 *2352:A 0.00118491
2 *2288:A 0
3 *2178:Q 0.000334659
4 *254:12 0.00151957
5 *2352:A *2099:A 0.000177098
6 *2289:A *2352:A 0
7 *42:204 *2352:A 0
8 *42:204 *254:12 0.000151333
*RES
1 *2178:Q *254:12 23.2464 
2 *254:12 *2288:A 9.3 
3 *254:12 *2352:A 40.1393 
*END

*D_NET *255 0.00427357
*CONN
*I *2058:A0 I *D sky130_fd_sc_hd__mux2_1
*I *2048:A2 I *D sky130_fd_sc_hd__a21boi_0
*I *2333:X O *D sky130_fd_sc_hd__buf_2
*CAP
1 *2058:A0 0.00132176
2 *2048:A2 0.000142926
3 *2333:X 0.000263892
4 *255:12 0.00172858
5 *2058:A0 *2059:A0 0
6 *2058:A0 *2059:S 0
7 *2058:A0 *2110:A1 0
8 *2058:A0 *2168:RESET_B 0
9 *2058:A0 *2354:A 0
10 *2058:A0 *2357:A 0.000474454
11 *2058:A0 *260:10 0.000121516
12 *2058:A0 *277:200 0
13 *2058:A0 *338:10 0
14 *255:12 *2354:A 6.96684e-05
15 *255:12 *2356:A 0
16 *255:12 *2357:A 5.73069e-05
17 data_gain[1] *255:12 2.24405e-05
18 *2167:D *2058:A0 4.07423e-05
19 *178:14 *2058:A0 3.02892e-05
*RES
1 *2333:X *255:12 23.1393 
2 *255:12 *2048:A2 11.4786 
3 *255:12 *2058:A0 47.2643 
*END

*D_NET *256 0.00457957
*CONN
*I *2353:A I *D sky130_fd_sc_hd__buf_2
*I *2261:A I *D sky130_fd_sc_hd__dlygate4sd3_1
*I *2181:Q O *D sky130_fd_sc_hd__dfrtp_1
*CAP
1 *2353:A 0.00187532
2 *2261:A 0
3 *2181:Q 0.000252588
4 *256:10 0.00212791
5 *2353:A *2181:RESET_B 0.000105487
6 *256:10 *2181:RESET_B 0.000218261
*RES
1 *2181:Q *256:10 17.925 
2 *256:10 *2261:A 13.8 
3 *256:10 *2353:A 46.05 
*END

*D_NET *257 0.00404241
*CONN
*I *2259:A I *D sky130_fd_sc_hd__dlygate4sd3_1
*I *2354:A I *D sky130_fd_sc_hd__buf_2
*I *2182:Q O *D sky130_fd_sc_hd__dfrtp_1
*CAP
1 *2259:A 0.000445382
2 *2354:A 0.00110691
3 *2182:Q 0
4 *257:4 0.0015523
5 *2354:A *2168:RESET_B 0
6 *2354:A *2356:A 0.000635494
7 *2354:A *2357:A 0
8 *2354:A *260:10 0
9 *2058:A0 *2354:A 0
10 *2217:A *2259:A 5.70551e-05
11 *2287:A *2354:A 0.000129868
12 *2327:A *2354:A 4.57352e-05
13 *255:12 *2354:A 6.96684e-05
*RES
1 *2182:Q *257:4 9.3 
2 *257:4 *2354:A 43.9964 
3 *257:4 *2259:A 16.425 
*END

*D_NET *258 0.00333745
*CONN
*I *2355:A I *D sky130_fd_sc_hd__buf_2
*I *2202:Q O *D sky130_fd_sc_hd__dfrtp_1
*CAP
1 *2355:A 0
2 *2202:Q 0.00166873
3 *258:12 0.00166873
*RES
1 *2202:Q *258:12 46.2464 
2 *258:12 *2355:A 9.3 
*END

*D_NET *259 0.00347988
*CONN
*I *2271:A I *D sky130_fd_sc_hd__dlygate4sd3_1
*I *2356:A I *D sky130_fd_sc_hd__buf_2
*I *2167:Q O *D sky130_fd_sc_hd__dfrtp_1
*CAP
1 *2271:A 0
2 *2356:A 0.00116026
3 *2167:Q 0.000164688
4 *259:10 0.00132495
5 *2356:A *2168:RESET_B 0
6 *2356:A *2357:A 0
7 *259:10 *2167:RESET_B 9.90431e-05
8 *259:10 *2168:RESET_B 0
9 *259:10 *277:200 0
10 *2217:A *259:10 2.56601e-05
11 *2286:A *2356:A 0
12 *2287:A *2356:A 6.97972e-05
13 *2354:A *2356:A 0.000635494
14 *255:12 *2356:A 0
*RES
1 *2167:Q *259:10 16.6929 
2 *259:10 *2356:A 40.6393 
3 *259:10 *2271:A 13.8 
*END

*D_NET *260 0.00300338
*CONN
*I *2266:A I *D sky130_fd_sc_hd__dlygate4sd3_1
*I *2357:A I *D sky130_fd_sc_hd__buf_2
*I *2168:Q O *D sky130_fd_sc_hd__dfrtp_1
*CAP
1 *2266:A 3.72884e-05
2 *2357:A 0.000784459
3 *2168:Q 0.000252006
4 *260:10 0.00107375
5 *260:10 *2168:RESET_B 5.52238e-05
6 data_gain[1] *2357:A 7.75767e-05
7 *2058:A0 *2357:A 0.000474454
8 *2058:A0 *260:10 0.000121516
9 *2327:A *2357:A 6.97972e-05
10 *2354:A *2357:A 0
11 *2354:A *260:10 0
12 *2356:A *2357:A 0
13 *255:12 *2357:A 5.73069e-05
*RES
1 *2168:Q *260:10 18.7107 
2 *260:10 *2357:A 33.3536 
3 *260:10 *2266:A 14.3357 
*END

*D_NET *261 0.00853485
*CONN
*I *2049:A1 I *D sky130_fd_sc_hd__a21o_1
*I *2358:A I *D sky130_fd_sc_hd__buf_2
*I *2045:Y O *D sky130_fd_sc_hd__inv_1
*CAP
1 *2049:A1 0
2 *2358:A 0.000147938
3 *2045:Y 0
4 *261:23 0.00249146
5 *261:4 0.0026394
6 *2358:A *2045:A 6.3906e-06
7 *2358:A *2372:A 4.34812e-05
8 *2358:A *299:14 2.2568e-05
9 *261:23 *2111:A1 0
10 *261:23 *2199:SET_B 9.25014e-06
11 *261:23 *2239:A 0.000105726
12 *261:23 *282:308 0
13 *261:23 *299:10 0
14 *261:23 *299:14 0.00287899
15 *2201:D *261:23 5.52302e-05
16 *2255:A *261:23 3.18676e-05
17 *81:49 *261:23 0.000102545
*RES
1 *2045:Y *261:4 9.3 
2 *261:4 *2358:A 11.5946 
3 *261:4 *261:23 48.6696 
4 *261:23 *2049:A1 13.8 
*END

*D_NET *262 0.00314111
*CONN
*I *2359:A I *D sky130_fd_sc_hd__buf_2
*I *2054:X O *D sky130_fd_sc_hd__and2_0
*CAP
1 *2359:A 0
2 *2054:X 0.0015561
3 *262:14 0.0015561
4 *262:14 *2054:B 2.89016e-05
*RES
1 *2054:X *262:14 46.7286 
2 *262:14 *2359:A 9.3 
*END

*D_NET *263 0.00417621
*CONN
*I *2270:A I *D sky130_fd_sc_hd__dlygate4sd3_1
*I *2360:A I *D sky130_fd_sc_hd__buf_2
*I *2183:Q O *D sky130_fd_sc_hd__dfrtp_1
*CAP
1 *2270:A 8.12815e-05
2 *2360:A 0.00178995
3 *2183:Q 0.000184597
4 *263:6 0.00205583
5 *2270:A *2062:B1 6.45442e-05
*RES
1 *2183:Q *263:6 11.4786 
2 *263:6 *2360:A 39.7286 
3 *263:6 *2270:A 19.9429 
*END

*D_NET *264 0.00642782
*CONN
*I *2361:A I *D sky130_fd_sc_hd__buf_2
*I *2268:A I *D sky130_fd_sc_hd__dlygate4sd3_1
*I *2193:Q O *D sky130_fd_sc_hd__dfrtp_1
*CAP
1 *2361:A 0
2 *2268:A 0.000499409
3 *2193:Q 0.00255923
4 *264:28 0.00205982
5 *2268:A *2193:RESET_B 0.000136631
6 *2104:A2 *264:28 4.88637e-05
7 *2136:A1 *2268:A 6.74815e-05
8 *2136:B2 *2268:A 0.000128146
9 *2304:A *264:28 0.00057167
10 *2305:A *264:28 0.000311183
11 *179:46 *2268:A 4.53889e-05
*RES
1 *2193:Q *2268:A 34.7071 
2 *2193:Q *264:28 46.0143 
3 *264:28 *2361:A 9.3 
*END

*D_NET *265 0.00775917
*CONN
*I *2362:A I *D sky130_fd_sc_hd__buf_2
*I *2230:A I *D sky130_fd_sc_hd__dlygate4sd3_1
*I *2194:Q O *D sky130_fd_sc_hd__dfrtp_1
*CAP
1 *2362:A 0.00157606
2 *2230:A 0.000305831
3 *2194:Q 0.000515093
4 *265:30 0.00178532
5 *2230:A *282:210 6.97972e-05
6 *265:30 *2194:RESET_B 9.84729e-05
7 *265:30 *282:204 4.88537e-05
8 *2294:A *2362:A 4.48647e-05
9 *2343:A *2362:A 0.00331489
10 *42:80 *2230:A 0
*RES
1 *2194:Q *2230:A 33.0643 
2 *2194:Q *265:30 21.4071 
3 *265:30 *2362:A 43.5321 
*END

*D_NET *266 0.00331036
*CONN
*I *2059:A0 I *D sky130_fd_sc_hd__mux2_1
*I *2048:A1 I *D sky130_fd_sc_hd__a21boi_0
*I *2334:X O *D sky130_fd_sc_hd__buf_2
*CAP
1 *2059:A0 0.000560344
2 *2048:A1 3.99619e-05
3 *2334:X 0.000293615
4 *266:14 0.000893922
5 *2059:A0 *338:10 2.79092e-05
6 *266:14 *2048:B1_N 0.00010707
7 data_gain[1] *266:14 0
8 gain_latched[1] *266:14 5.52302e-05
9 *2058:A0 *2059:A0 0
10 *2334:A *266:14 2.16516e-05
11 *81:10 *2059:A0 0.00125157
12 *81:10 *266:14 5.90911e-05
*RES
1 *2334:X *266:14 19.0857 
2 *266:14 *2048:A1 14.3357 
3 *266:14 *2059:A0 29.7107 
*END

*D_NET *267 0.0037361
*CONN
*I *2363:A I *D sky130_fd_sc_hd__buf_2
*I *2269:A I *D sky130_fd_sc_hd__dlygate4sd3_1
*I *2184:Q O *D sky130_fd_sc_hd__dfrtp_1
*CAP
1 *2363:A 0.00130144
2 *2269:A 3.73289e-05
3 *2184:Q 0.000364072
4 *267:10 0.00170284
5 *267:10 *2184:RESET_B 0.000216867
6 trial_code[1] *2363:A 2.90135e-05
7 *2335:A *2363:A 8.45364e-05
*RES
1 *2184:Q *267:10 19.9429 
2 *267:10 *2269:A 14.3357 
3 *267:10 *2363:A 37.1571 
*END

*D_NET *268 0.00340831
*CONN
*I *2264:A I *D sky130_fd_sc_hd__dlygate4sd3_1
*I *2364:A I *D sky130_fd_sc_hd__buf_2
*I *2185:Q O *D sky130_fd_sc_hd__dfrtp_1
*CAP
1 *2264:A 0.000150104
2 *2364:A 0.00102573
3 *2185:Q 0
4 *268:4 0.00117583
5 *2264:A *340:10 0.000166956
6 *2323:A *2264:A 7.88091e-05
7 *2323:A *2364:A 0.000128609
8 *2332:A *2364:A 5.85455e-05
9 *181:14 *2364:A 0.000623731
*RES
1 *2185:Q *268:4 9.3 
2 *268:4 *2364:A 42.9429 
3 *268:4 *2264:A 13.5321 
*END

*D_NET *269 0.00472482
*CONN
*I *2365:A I *D sky130_fd_sc_hd__buf_2
*I *2267:A I *D sky130_fd_sc_hd__dlygate4sd3_1
*I *2186:Q O *D sky130_fd_sc_hd__dfrtp_1
*CAP
1 *2365:A 0.00159774
2 *2267:A 0.000112296
3 *2186:Q 4.70928e-05
4 *269:8 0.00175713
5 *2267:A *281:175 3.18676e-05
6 *2365:A *2072:B1 0
7 *2365:A *2073:B 0
8 *2365:A *281:186 0
9 *2365:A *281:197 0
10 *2118:B *2267:A 0.000124731
11 *2118:B *2365:A 7.46072e-05
12 *2171:CLK *2365:A 0.000402222
13 *2186:CLK *269:8 2.59355e-05
14 *2346:A *2365:A 0
15 *180:19 *2267:A 0.000193596
16 *180:30 *2267:A 4.66056e-05
17 *180:30 *2365:A 0.000310991
*RES
1 *2186:Q *269:8 14.3357 
2 *269:8 *2267:A 17.4964 
3 *269:8 *2365:A 44.7464 
*END

*D_NET *270 0.00499521
*CONN
*I *2272:A I *D sky130_fd_sc_hd__dlygate4sd3_1
*I *2366:A I *D sky130_fd_sc_hd__buf_2
*I *2187:Q O *D sky130_fd_sc_hd__dfrtp_1
*CAP
1 *2272:A 4.54353e-05
2 *2366:A 0
3 *2187:Q 0.000132571
4 *270:14 0.00195101
5 *270:6 0.00212902
6 *270:14 *2172:D 0
7 *2095:A2 *270:14 1.0033e-05
8 *2219:A *270:6 5.45307e-05
9 *2278:A *270:14 0
10 *2319:A *270:14 0
11 *4:10 *270:14 0
12 *161:54 *270:14 4.60232e-06
13 *181:80 *2272:A 8.44071e-05
14 *181:80 *270:6 5.52302e-05
15 *181:127 *270:14 0.000357162
16 *222:84 *270:14 0.000171206
*RES
1 *2187:Q *270:6 11.8893 
2 *270:6 *270:14 45.4107 
3 *270:14 *2366:A 9.3 
4 *270:6 *2272:A 10.2464 
*END

*D_NET *271 0.00704685
*CONN
*I *2275:A I *D sky130_fd_sc_hd__dlygate4sd3_1
*I *2367:A I *D sky130_fd_sc_hd__buf_2
*I *2188:Q O *D sky130_fd_sc_hd__dfrtp_1
*CAP
1 *2275:A 0.000106491
2 *2367:A 0
3 *2188:Q 0.0024907
4 *271:10 0.00238421
5 *271:10 *2188:RESET_B 0.000394178
6 data[5] *271:10 6.043e-05
7 *2174:CLK *2275:A 3.08664e-05
8 *2226:A *2275:A 0
9 *2300:A *271:10 2.89114e-05
10 *2302:A *2275:A 0.000125736
11 *2348:A *271:10 0.00142534
*RES
1 *2188:Q *271:10 48.0143 
2 *271:10 *2367:A 13.8 
3 *2188:Q *2275:A 29.7786 
*END

*D_NET *272 0.00697484
*CONN
*I *2368:A I *D sky130_fd_sc_hd__buf_2
*I *2273:A I *D sky130_fd_sc_hd__dlygate4sd3_1
*I *2189:Q O *D sky130_fd_sc_hd__dfrtp_1
*CAP
1 *2368:A 0
2 *2273:A 4.74917e-05
3 *2189:Q 0.000116888
4 *272:25 0.00239522
5 *272:6 0.0025596
6 *2273:A *2088:B1 7.83659e-05
7 *2273:A *281:127 0.000128154
8 data[6] *272:25 6.27457e-05
9 *2088:A2 *272:6 5.65955e-05
10 *2307:A *2273:A 0
11 *2308:A *272:25 0.000144856
12 *2349:A *272:25 0.00138492
*RES
1 *2189:Q *272:6 10.6571 
2 *272:6 *2273:A 19.9429 
3 *272:6 *272:25 43.8036 
4 *272:25 *2368:A 9.3 
*END

*D_NET *273 0.00593307
*CONN
*I *2369:A I *D sky130_fd_sc_hd__buf_2
*I *2276:A I *D sky130_fd_sc_hd__dlygate4sd3_1
*I *2190:Q O *D sky130_fd_sc_hd__dfrtp_1
*CAP
1 *2369:A 0.0021369
2 *2276:A 0.000192045
3 *2190:Q 0.000301632
4 *273:6 0.00263058
5 *2276:A *281:25 0.000228508
6 *2276:A *281:29 8.6332e-05
7 *273:6 *2092:B1 8.20629e-05
8 *2090:A *273:6 6.35826e-05
9 *2090:B *273:6 0.00010096
10 *2092:A2 *273:6 1.21258e-05
11 *2298:A *2369:A 9.83388e-05
12 *178:110 *2276:A 0
*RES
1 *2190:Q *273:6 15.175 
2 *273:6 *2276:A 22.7286 
3 *273:6 *2369:A 45.3 
*END

*D_NET *274 0.00352902
*CONN
*I *2263:A I *D sky130_fd_sc_hd__dlygate4sd3_1
*I *2370:A I *D sky130_fd_sc_hd__buf_2
*I *2191:Q O *D sky130_fd_sc_hd__dfrtp_1
*CAP
1 *2263:A 0.000212122
2 *2370:A 0.00146691
3 *2191:Q 0
4 *274:4 0.00167903
5 *2370:A *2093:A 0
6 *2370:A *2096:B1 0
7 *2370:A *2371:A 0
8 *2370:A *282:107 8.22359e-05
9 *2370:A *282:109 4.07423e-05
10 *2093:B *2370:A 0
11 *2096:A1 *2370:A 0
12 *2284:A *2370:A 4.79842e-05
13 *2351:A *2370:A 0
14 *253:10 *2370:A 0
*RES
1 *2191:Q *274:4 9.3 
2 *274:4 *2370:A 45.8179 
3 *274:4 *2263:A 12.7107 
*END

*D_NET *275 0.00454702
*CONN
*I *2371:A I *D sky130_fd_sc_hd__buf_2
*I *2265:A I *D sky130_fd_sc_hd__dlygate4sd3_1
*I *2192:Q O *D sky130_fd_sc_hd__dfrtp_1
*CAP
1 *2371:A 0.00162232
2 *2265:A 2.04121e-05
3 *2192:Q 0.00014075
4 *275:10 0.00178348
5 *2265:A *2134:B1 9.84729e-05
6 *2371:A *2177:D 5.33882e-05
7 *2371:A *2191:D 5.32071e-05
8 *2371:A *282:107 0
9 *2093:B *2371:A 7.30398e-05
10 *2096:A1 *2371:A 8.77022e-05
11 *2096:A2 *2371:A 0
12 *2096:A2 *275:10 0
13 *2098:A1 *2265:A 5.23822e-05
14 *2098:A2 *275:10 0.000143887
15 *2131:B *275:10 1.84865e-05
16 *2133:B *2371:A 0
17 *2191:CLK *2371:A 0.000175897
18 *2370:A *2371:A 0
19 *179:109 *2371:A 0.000223592
*RES
1 *2192:Q *275:10 16.2821 
2 *275:10 *2265:A 14.7464 
3 *275:10 *2371:A 44.9786 
*END

*D_NET *276 0.01159
*CONN
*I *2121:B1 I *D sky130_fd_sc_hd__a22o_1
*I *2132:B1 I *D sky130_fd_sc_hd__a22o_1
*I *2134:B1 I *D sky130_fd_sc_hd__a22o_1
*I *2123:B1 I *D sky130_fd_sc_hd__a22o_1
*I *2119:B1 I *D sky130_fd_sc_hd__a22o_1
*I *2337:X O *D sky130_fd_sc_hd__clkbuf_2
*CAP
1 *2121:B1 6.3426e-05
2 *2132:B1 4.17853e-05
3 *2134:B1 0.000730665
4 *2123:B1 0.00026892
5 *2119:B1 0
6 *2337:X 0.000205964
7 *276:46 0.000883433
8 *276:33 0.00120787
9 *276:25 0.00178285
10 *276:12 0.00109741
11 *2121:B1 *2121:A1 5.03772e-05
12 *2134:B1 *2134:A1 0.000219274
13 *2134:B1 *2191:D 9.84673e-05
14 *2134:B1 *282:111 4.0952e-05
15 *276:12 *2119:A2 0.000432849
16 *276:12 *2186:RESET_B 0.000120065
17 *276:25 *2186:D 0.000101915
18 *276:25 *281:175 0
19 *2072:A2 *276:12 0.000106433
20 *2077:A2 *276:25 0.000168728
21 *2077:A2 *276:33 8.22793e-06
22 *2098:A1 *2134:B1 6.28363e-05
23 *2098:A2 *2134:B1 0.000227179
24 *2117:B2 *276:12 9.84729e-05
25 *2118:A *276:25 3.06878e-06
26 *2119:B2 *276:25 0.000101327
27 *2120:A2 *2123:B1 0
28 *2121:A2 *276:25 2.06112e-05
29 *2121:A2 *276:33 0.00121876
30 *2121:B2 *2121:B1 1.73088e-05
31 *2123:A1 *2123:B1 5.52238e-05
32 *2123:B2 *2123:B1 0.000146474
33 *2134:A2 *2134:B1 0.000497316
34 *2134:B2 *2134:B1 4.70548e-05
35 *2265:A *2134:B1 9.84729e-05
36 *2320:A *2134:B1 6.96806e-05
37 *2322:A *2134:B1 0.000302934
38 *95:6 *276:25 4.00276e-06
39 *115:10 *2134:B1 5.23822e-05
40 *124:61 *2123:B1 1.856e-05
41 *124:76 *2123:B1 0.000533151
42 *124:76 *276:46 4.77305e-05
43 *124:93 *2134:B1 2.45012e-05
44 *124:93 *276:46 0.000136351
45 *161:54 *2121:B1 7.61932e-05
46 *180:30 *276:12 4.36989e-05
47 *181:100 *2123:B1 5.71472e-05
48 *188:10 *2123:B1 0
*RES
1 *2337:X *276:12 25.0857 
2 *276:12 *2119:B1 9.3 
3 *276:12 *276:25 17.9286 
4 *276:25 *276:33 9.16165 
5 *276:33 *2123:B1 21.5946 
6 *276:33 *276:46 2.40179 
7 *276:46 *2134:B1 31.6571 
8 *276:46 *2132:B1 14.3357 
9 *276:25 *2121:B1 15.5857 
*END

*D_NET *277 0.0171503
*CONN
*I *2182:RESET_B I *D sky130_fd_sc_hd__dfrtp_1
*I *2168:RESET_B I *D sky130_fd_sc_hd__dfrtp_1
*I *2190:RESET_B I *D sky130_fd_sc_hd__dfrtp_1
*I *2167:RESET_B I *D sky130_fd_sc_hd__dfrtp_1
*I *2176:RESET_B I *D sky130_fd_sc_hd__dfrtp_1
*I *2202:RESET_B I *D sky130_fd_sc_hd__dfrtp_1
*I *2181:RESET_B I *D sky130_fd_sc_hd__dfrtp_1
*I *2175:RESET_B I *D sky130_fd_sc_hd__dfrtp_1
*I *2183:RESET_B I *D sky130_fd_sc_hd__dfrtp_1
*I *2169:RESET_B I *D sky130_fd_sc_hd__dfrtp_1
*I *2189:RESET_B I *D sky130_fd_sc_hd__dfrtp_1
*I *2188:RESET_B I *D sky130_fd_sc_hd__dfrtp_1
*I *2342:A I *D sky130_fd_sc_hd__buf_12
*I *2174:RESET_B I *D sky130_fd_sc_hd__dfrtp_1
*I *2170:RESET_B I *D sky130_fd_sc_hd__dfrtp_1
*I *2335:X O *D sky130_fd_sc_hd__buf_2
*CAP
1 *2182:RESET_B 0
2 *2168:RESET_B 0.000302037
3 *2190:RESET_B 0.000651067
4 *2167:RESET_B 0.000764725
5 *2176:RESET_B 0.000687063
6 *2202:RESET_B 0
7 *2181:RESET_B 0.00110304
8 *2175:RESET_B 5.62456e-05
9 *2183:RESET_B 5.81027e-05
10 *2169:RESET_B 0.000569228
11 *2189:RESET_B 0.000712182
12 *2188:RESET_B 0.000663757
13 *2342:A 0.000102978
14 *2174:RESET_B 0.000743617
15 *2170:RESET_B 0.000144729
16 *2335:X 0.00147442
17 *277:200 0.000391927
18 *277:122 0.000885372
19 *277:120 0.000895281
20 *277:88 0.000639239
21 *277:84 0.000708319
22 *277:18 0.000982568
23 *277:12 0.00186125
24 *2168:RESET_B *2182:D 5.00521e-05
25 *2169:RESET_B *2169:D 0
26 *2174:RESET_B *2066:A 4.07062e-05
27 *2174:RESET_B *2174:D 0
28 *2174:RESET_B *281:153 0
29 *2175:RESET_B *2175:D 4.50774e-05
30 *2181:RESET_B *281:37 0
31 *2190:RESET_B *2092:A1 0.000184763
32 *2190:RESET_B *2176:D 8.68344e-05
33 *277:84 *281:114 0.000225918
34 *277:88 *2087:B 5.48715e-05
35 *277:88 *281:114 9.06059e-05
36 *277:120 *2060:A 0
37 *277:122 *281:29 0
38 *277:122 *281:31 0
39 *2058:A0 *2168:RESET_B 0
40 *2058:A0 *277:200 0
41 *2088:A2 *2189:RESET_B 9.17414e-05
42 *2088:A2 *277:84 0.000142066
43 *2090:A *2190:RESET_B 0.000179995
44 *2090:B *2190:RESET_B 0.000179995
45 *2109:A1 *2167:RESET_B 0.000143819
46 *2174:CLK *2188:RESET_B 9.82582e-05
47 *2174:CLK *2189:RESET_B 4.8474e-05
48 *2176:CLK *2190:RESET_B 3.57488e-05
49 *2181:CLK *2167:RESET_B 3.4689e-05
50 *2188:D *2189:RESET_B 4.1331e-06
51 *2217:A *277:200 0
52 *2224:A *2190:RESET_B 0
53 *2226:A *2189:RESET_B 0
54 *2291:A *2170:RESET_B 7.62237e-05
55 *2291:A *2174:RESET_B 2.59355e-05
56 *2293:A *2174:RESET_B 0
57 *2297:A *277:122 0
58 *2300:A *2174:RESET_B 0
59 *2310:A *277:120 0
60 *2312:A *2181:RESET_B 2.71192e-05
61 *2353:A *2181:RESET_B 0.000105487
62 *2354:A *2168:RESET_B 0
63 *2356:A *2168:RESET_B 0
64 *178:110 *2190:RESET_B 1.39726e-05
65 *180:63 *2189:RESET_B 0
66 *180:65 *2189:RESET_B 0
67 *256:10 *2181:RESET_B 0.000218261
68 *259:10 *2167:RESET_B 9.90431e-05
69 *259:10 *2168:RESET_B 0
70 *259:10 *277:200 0
71 *260:10 *2168:RESET_B 5.52238e-05
72 *271:10 *2188:RESET_B 0.000394178
*RES
1 *2335:X *277:12 44.6929 
2 *277:12 *277:18 14.2857 
3 *277:18 *2170:RESET_B 2.52679 
4 *277:18 *2174:RESET_B 19.375 
5 *277:12 *2342:A 11.0679 
6 *2174:RESET_B *2188:RESET_B 4.92857 
7 *2188:RESET_B *2189:RESET_B 17.2679 
8 *2189:RESET_B *277:84 10.0268 
9 *277:84 *277:88 7.33929 
10 *277:88 *2169:RESET_B 7.66071 
11 *277:88 *2183:RESET_B 5.38393 
12 *277:84 *2175:RESET_B 5.38393 
13 *2169:RESET_B *277:120 11.5357 
14 *277:120 *277:122 8.32143 
15 *277:122 *2181:RESET_B 13.5268 
16 *277:122 *2202:RESET_B 4.5 
17 *277:120 *2176:RESET_B 4.97321 
18 *2181:RESET_B *2167:RESET_B 21.0893 
19 *2176:RESET_B *2190:RESET_B 19.2321 
20 *2167:RESET_B *277:200 6.14286 
21 *277:200 *2168:RESET_B 10.0804 
22 *277:200 *2182:RESET_B 4.5 
*END

*D_NET *278 0.00493986
*CONN
*I *2115:B1 I *D sky130_fd_sc_hd__a22o_1
*I *2117:B1 I *D sky130_fd_sc_hd__a22o_1
*I *2337:A I *D sky130_fd_sc_hd__clkbuf_2
*I *2125:B1 I *D sky130_fd_sc_hd__a22o_1
*I *2127:B1 I *D sky130_fd_sc_hd__a22o_1
*I *2338:X O *D sky130_fd_sc_hd__clkbuf_2
*CAP
1 *2115:B1 8.69093e-05
2 *2117:B1 0
3 *2337:A 0.000101992
4 *2125:B1 0
5 *2127:B1 2.3671e-05
6 *2338:X 0.000310254
7 *278:32 0.000491719
8 *278:21 0.000688562
9 *278:10 0.000688491
10 *278:6 0.000763149
11 *2115:B1 *2115:A2 5.50052e-05
12 *2337:A *2119:A2 1.99271e-05
13 *278:10 *279:90 0.000245128
14 *278:10 *279:94 2.8266e-06
15 *278:21 *279:94 9.26734e-05
16 *278:32 *2065:B1 0.000124012
17 *278:32 *279:94 1.00375e-05
18 *278:32 *279:109 3.86177e-05
19 *2062:A2 *278:10 0.00015244
20 *2065:A2 *278:32 0.000271258
21 *2070:C *278:32 0
22 *2086:B1 *2127:B1 5.52302e-05
23 *2114:B *278:10 0
24 *2114:B *278:21 0
25 *2114:B *278:32 0
26 *2115:B2 *278:10 0.000100248
27 *2117:B2 *2337:A 5.23735e-05
28 *2124:B1 *278:21 4.35141e-05
29 *2124:B1 *278:32 1.91512e-05
30 *2125:A1 *278:21 0.000175526
31 *2125:A1 *278:32 1.02504e-05
32 *2126:B1 *278:10 2.72449e-05
33 *2127:B2 *278:10 0.000153047
34 *180:65 *278:10 0
35 *181:18 *278:32 8.64768e-05
36 *181:24 *278:32 0
37 *190:12 *278:21 5.01213e-05
*RES
1 *2338:X *278:6 13.9429 
2 *278:6 *278:10 14.0357 
3 *278:10 *2127:B1 14.3357 
4 *278:10 *278:21 6.80357 
5 *278:21 *2125:B1 13.8 
6 *278:21 *278:32 14.3393 
7 *278:32 *2337:A 11.0679 
8 *278:32 *2117:B1 9.3 
9 *278:6 *2115:B1 10.6571 
*END

*D_NET *279 0.014324
*CONN
*I *2127:A2 I *D sky130_fd_sc_hd__a22o_1
*I *2119:A2 I *D sky130_fd_sc_hd__a22o_1
*I *2117:A2 I *D sky130_fd_sc_hd__a22o_1
*I *2125:A2 I *D sky130_fd_sc_hd__a22o_1
*I *2115:A2 I *D sky130_fd_sc_hd__a22o_1
*I *2128:B I *D sky130_fd_sc_hd__nand2_1
*I *2130:A2 I *D sky130_fd_sc_hd__o31ai_1
*I *2113:B I *D sky130_fd_sc_hd__nor3b_1
*I *2339:X O *D sky130_fd_sc_hd__buf_4
*CAP
1 *2127:A2 0
2 *2119:A2 0.000635349
3 *2117:A2 0
4 *2125:A2 3.50765e-05
5 *2115:A2 7.20187e-05
6 *2128:B 0.000355839
7 *2130:A2 0
8 *2113:B 6.74963e-05
9 *2339:X 0.00129438
10 *279:109 0.000998901
11 *279:94 0.000636352
12 *279:90 0.000660101
13 *279:73 0.00139024
14 *279:50 0.00131175
15 *279:41 0.000274425
16 *279:14 0.00157624
17 *2113:B *280:16 7.16714e-05
18 *2128:B *280:16 6.16936e-05
19 *279:41 *2247:A 2.11419e-05
20 *279:41 *280:16 7.56452e-05
21 *279:50 *280:16 1.59935e-05
22 *279:73 *280:16 2.49484e-05
23 *279:73 *281:10 0
24 *279:73 *281:92 0
25 *279:90 *2115:A1 8.6052e-05
26 *279:109 *2065:B1 7.70717e-05
27 *279:109 *340:10 5.54817e-06
28 *2042:B *279:73 0
29 *2043:A *279:14 6.65616e-05
30 *2051:B *2113:B 2.11419e-05
31 *2062:A2 *279:90 0.000150773
32 *2065:A2 *2125:A2 5.30637e-06
33 *2065:A2 *279:109 0.000511908
34 *2086:B1 *279:90 6.05161e-06
35 *2088:A2 *279:90 1.56e-05
36 *2115:B1 *2115:A2 5.50052e-05
37 *2115:B2 *279:73 1.00887e-05
38 *2115:B2 *279:90 0.000113924
39 *2117:B2 *2119:A2 9.2815e-05
40 *2125:A1 *279:94 9.24491e-05
41 *2128:A *2128:B 5.31567e-06
42 *2129:A1 *2128:B 5.23057e-05
43 *2129:A2 *2113:B 1.55885e-05
44 *2129:A2 *279:41 2.98258e-05
45 *2129:A2 *279:50 4.97097e-05
46 *2129:A3 *2128:B 3.18676e-05
47 *2129:B1 *2128:B 0.000183726
48 *2129:B1 *279:41 1.94945e-05
49 *2129:B2 *2128:B 0
50 *2130:A1 *2113:B 5.04331e-05
51 *2130:A1 *279:41 9.60875e-05
52 *2130:A3 *2128:B 0.000125731
53 *2138:C1 *279:14 2.59355e-05
54 *2141:A *279:14 4.43256e-05
55 *2141:C *279:14 0.00017335
56 *2175:CLK *279:90 0
57 *2190:CLK *2128:B 7.32215e-05
58 *2190:D *279:73 0
59 *2222:A *279:90 4.79842e-05
60 *2224:A *279:73 6.58289e-05
61 *2225:A *2128:B 0
62 *2225:A *279:73 9.41642e-05
63 *2330:A *2119:A2 5.46383e-06
64 *2337:A *2119:A2 1.99271e-05
65 *42:10 *279:73 3.59033e-05
66 *42:27 *279:14 0.000380192
67 *42:27 *279:41 6.4992e-05
68 *42:31 *279:14 2.04825e-05
69 *85:19 *2113:B 5.30637e-06
70 *108:10 *279:73 0
71 *159:38 *2113:B 1.94879e-05
72 *180:61 *279:109 7.08001e-05
73 *180:63 *279:94 0.000128399
74 *180:63 *279:109 2.8266e-06
75 *180:65 *279:94 6.95112e-05
76 *180:110 *279:109 0.000199217
77 *190:12 *279:94 9.91086e-05
78 *207:67 *279:14 0.000167774
79 *219:16 *279:14 0.000137983
80 *276:12 *2119:A2 0.000432849
81 *278:10 *279:90 0.000245128
82 *278:10 *279:94 2.8266e-06
83 *278:21 *279:94 9.26734e-05
84 *278:32 *279:94 1.00375e-05
85 *278:32 *279:109 3.86177e-05
*RES
1 *2339:X *279:14 24.9994 
2 *279:14 *2113:B 18.9555 
3 *279:14 *279:41 10.0846 
4 *279:41 *2130:A2 9.3 
5 *279:41 *279:50 5.65179 
6 *279:50 *2128:B 21.5143 
7 *279:50 *279:73 24.875 
8 *279:73 *2115:A2 15.1571 
9 *279:73 *279:90 15 
10 *279:90 *279:94 11.6071 
11 *279:94 *2125:A2 14.3357 
12 *279:94 *279:109 14.875 
13 *279:109 *2117:A2 9.3 
14 *279:109 *2119:A2 27.9786 
15 *279:90 *2127:A2 9.3 
*END

*D_NET *280 0.0132894
*CONN
*I *2058:S I *D sky130_fd_sc_hd__mux2_1
*I *2059:S I *D sky130_fd_sc_hd__mux2_1
*I *2158:B I *D sky130_fd_sc_hd__nand3_1
*I *2161:A1 I *D sky130_fd_sc_hd__a21oi_1
*I *2154:A1 I *D sky130_fd_sc_hd__a21bo_1
*I *2153:B I *D sky130_fd_sc_hd__nand3_1
*I *2340:X O *D sky130_fd_sc_hd__clkbuf_2
*CAP
1 *2058:S 3.51533e-05
2 *2059:S 0.000476594
3 *2158:B 0.000130504
4 *2161:A1 0.000192689
5 *2154:A1 0.000212311
6 *2153:B 0.000517634
7 *2340:X 0.00164063
8 *280:88 0.000587296
9 *280:55 0.000652251
10 *280:51 0.000537498
11 *280:28 0.00143804
12 *280:16 0.00247684
13 *2059:S *2110:A1 0.000179656
14 *2059:S *2182:D 6.74911e-05
15 *280:16 *2055:A 0
16 *280:16 *2247:A 0
17 *280:28 *2164:RESET_B 4.05206e-05
18 *280:28 *282:365 0.000100464
19 *2042:B *280:16 2.16719e-05
20 *2056:A *280:28 0.00017421
21 *2058:A0 *2059:S 0
22 *2113:B *280:16 7.16714e-05
23 *2128:B *280:16 6.16936e-05
24 *2129:B1 *280:16 6.8646e-06
25 *2130:A1 *280:16 2.35173e-05
26 *2130:A3 *280:16 0.000127446
27 *2153:A *2153:B 2.37575e-05
28 *2154:A2 *2154:A1 0.000178503
29 *2156:B *2161:A1 3.07555e-05
30 *2158:C *2161:A1 5.33005e-05
31 *2159:B1 *280:55 7.62323e-05
32 *2163:B2 *2161:A1 5.52238e-05
33 *2165:CLK *2153:B 8.35129e-05
34 *2165:D *2153:B 0.000142856
35 *2167:D *2059:S 6.66813e-05
36 *2190:CLK *280:16 0
37 *2229:A *2153:B 0.000102983
38 *2234:A *2158:B 0.000100681
39 *2234:A *280:51 3.2923e-05
40 *2235:A *2153:B 9.58689e-05
41 *2238:A *2158:B 0
42 *2250:A *280:16 1.92905e-05
43 *2274:A *280:28 5.49544e-05
44 *2317:A *280:55 1.74137e-05
45 *42:10 *280:16 0.000196276
46 *81:10 *2059:S 0.000298254
47 *81:10 *280:16 0.000608238
48 *85:19 *280:16 0.000138178
49 *148:10 *2161:A1 5.58941e-05
50 *148:14 *2161:A1 3.32442e-05
51 *148:20 *2153:B 1.86547e-05
52 *150:14 *2153:B 0.000101388
53 *150:14 *2154:A1 2.69219e-05
54 *150:14 *280:55 2.97489e-05
55 *151:10 *2161:A1 0.000101388
56 *178:10 *280:16 0
57 *178:14 *2059:S 8.67814e-06
58 *178:14 *280:16 0
59 *178:20 *2058:S 8.60361e-05
60 *178:20 *280:28 5.50052e-05
61 *178:20 *280:88 0.000169577
62 *198:8 *280:55 0.000183711
63 *198:10 *2158:B 0
64 *198:10 *2161:A1 0
65 *198:43 *2158:B 0
66 *198:43 *2161:A1 0
67 *203:23 *2158:B 0
68 *222:6 *280:16 0.000140856
69 *222:16 *280:16 1.32056e-05
70 *279:41 *280:16 7.56452e-05
71 *279:50 *280:16 1.59935e-05
72 *279:73 *280:16 2.49484e-05
*RES
1 *2340:X *280:16 47.3893 
2 *280:16 *280:28 19.2857 
3 *280:28 *2153:B 32.6036 
4 *280:28 *280:51 3.16071 
5 *280:51 *280:55 9.55357 
6 *280:55 *2154:A1 12.7286 
7 *280:55 *2161:A1 22.1036 
8 *280:51 *2158:B 16.05 
9 *280:16 *280:88 1.76786 
10 *280:88 *2059:S 30.2643 
11 *280:88 *2058:S 10.2464 
*END

*D_NET *281 0.0269043
*CONN
*I *2066:B I *D sky130_fd_sc_hd__nor2_1
*I *2067:A1 I *D sky130_fd_sc_hd__a21oi_1
*I *2073:B I *D sky130_fd_sc_hd__nor2_1
*I *2068:B I *D sky130_fd_sc_hd__nor2_1
*I *2072:A1 I *D sky130_fd_sc_hd__a21oi_1
*I *2077:A1 I *D sky130_fd_sc_hd__a21oi_1
*I *2084:B I *D sky130_fd_sc_hd__nor2_1
*I *2085:A1 I *D sky130_fd_sc_hd__a21oi_1
*I *2088:A1 I *D sky130_fd_sc_hd__a21oi_1
*I *2087:B I *D sky130_fd_sc_hd__nor2_1
*I *2062:A1 I *D sky130_fd_sc_hd__a21oi_1
*I *2060:B I *D sky130_fd_sc_hd__nor2_1
*I *2091:B I *D sky130_fd_sc_hd__nor2_1
*I *2202:D I *D sky130_fd_sc_hd__dfrtp_1
*I *2109:S I *D sky130_fd_sc_hd__mux2_1
*I *2110:S I *D sky130_fd_sc_hd__mux2_1
*I *2092:A1 I *D sky130_fd_sc_hd__a21oi_1
*I *2341:X O *D sky130_fd_sc_hd__buf_6
*CAP
1 *2066:B 0
2 *2067:A1 2.18484e-05
3 *2073:B 0.000420307
4 *2068:B 0.000265509
5 *2072:A1 0.000172563
6 *2077:A1 0.000306271
7 *2084:B 0.00016398
8 *2085:A1 0.000516521
9 *2088:A1 0
10 *2087:B 4.9798e-05
11 *2062:A1 0
12 *2060:B 0.000130476
13 *2091:B 6.03491e-05
14 *2202:D 0.000133225
15 *2109:S 0
16 *2110:S 0.00121648
17 *2092:A1 0.000253116
18 *2341:X 0.000429279
19 *281:197 0.000971658
20 *281:186 0.000647
21 *281:175 0.00183559
22 *281:159 0.00160228
23 *281:153 0.000601442
24 *281:129 0.0006805
25 *281:127 0.000662604
26 *281:114 0.000501561
27 *281:101 0.000555173
28 *281:92 0.00097447
29 *281:37 0.00180487
30 *281:31 0.0010192
31 *281:29 0.000768437
32 *281:25 0.000843797
33 *281:10 0.000650767
34 *281:8 0.00119389
35 *2073:B *2073:A 9.90367e-05
36 *2077:A1 *2077:B1 0.000100165
37 *2085:A1 *2085:B1 0.000488398
38 *2087:B *2062:B1 5.50052e-05
39 *2087:B *2087:A 1.48252e-05
40 *2110:S *2109:A0 9.99853e-05
41 *2110:S *2110:A0 0.000574073
42 *281:29 *2092:B1 0
43 *281:29 *2176:D 0.000128154
44 *281:37 *2109:A0 9.49658e-05
45 *281:92 *2115:A1 5.85373e-05
46 *281:101 *2062:B1 0.000356281
47 *281:114 *2087:A 2.44568e-05
48 *281:114 *2088:B1 5.80706e-06
49 *281:114 *2175:D 0
50 *281:127 *2088:B1 1.3142e-05
51 *281:153 *2174:D 0.000324167
52 *281:159 *2067:B1 0.000273822
53 *281:175 *2065:B1 9.05283e-05
54 *281:175 *2076:B1 5.2958e-05
55 *281:175 *2121:A1 1.58163e-05
56 *281:175 *336:10 4.67214e-05
57 *281:186 *2077:B1 0
58 *281:197 *2077:B1 0
59 *2062:A2 *281:92 0.000218656
60 *2065:A1 *281:175 0.000128496
61 *2067:A2 *281:175 0.000142053
62 *2072:A2 *2072:A1 5.33005e-05
63 *2077:A2 *2077:A1 5.49995e-05
64 *2109:A1 *2110:S 0.000141734
65 *2174:RESET_B *281:153 0
66 *2181:RESET_B *281:37 0
67 *2183:CLK *281:92 0.000168698
68 *2190:RESET_B *2092:A1 0.000184763
69 *2202:CLK *2202:D 5.20751e-05
70 *2202:CLK *281:29 0
71 *2202:CLK *281:31 0
72 *2214:A *281:92 4.07505e-05
73 *2217:A *2110:S 0
74 *2224:A *2092:A1 0
75 *2260:A *2110:S 0
76 *2262:A *281:37 0
77 *2267:A *281:175 3.18676e-05
78 *2273:A *281:127 0.000128154
79 *2276:A *281:25 0.000228508
80 *2276:A *281:29 8.6332e-05
81 *2278:A *2073:B 5.71472e-05
82 *2286:A *2110:S 9.90367e-05
83 *2292:A *281:159 5.49489e-05
84 *2293:A *281:153 2.58289e-05
85 *2293:A *281:159 0.000452685
86 *2298:A *2091:B 4.85049e-06
87 *2298:A *281:29 0
88 *2299:A *281:29 0
89 *2301:A *2084:B 0.000144773
90 *2302:A *2085:A1 3.21277e-05
91 *2302:A *281:127 0.000106403
92 *2302:A *281:153 0.000500929
93 *2307:A *281:114 0
94 *2313:A *281:37 0
95 *2325:A *281:175 4.37999e-05
96 *2346:A *2073:B 0
97 *2365:A *2073:B 0
98 *2365:A *281:186 0
99 *2365:A *281:197 0
100 *161:54 *281:175 9.60875e-05
101 *178:104 *281:29 0
102 *178:110 *2092:A1 0.000414159
103 *178:110 *281:10 0.000201127
104 *178:110 *281:92 9.25014e-06
105 *181:24 *281:175 0.000230482
106 *196:6 *2085:A1 2.90516e-05
107 *215:10 *281:197 0
108 *276:25 *281:175 0
109 *277:84 *281:114 0.000225918
110 *277:88 *2087:B 5.48715e-05
111 *277:88 *281:114 9.06059e-05
112 *277:122 *281:29 0
113 *277:122 *281:31 0
114 *279:73 *281:10 0
115 *279:73 *281:92 0
*RES
1 *2341:X *281:8 20.4964 
2 *281:8 *281:10 2.55357 
3 *281:10 *2092:A1 19.8357 
4 *281:10 *281:25 9.96429 
5 *281:25 *281:29 12.2143 
6 *281:29 *281:31 5.28571 
7 *281:31 *281:37 15.5 
8 *281:37 *2110:S 40.0679 
9 *281:37 *2109:S 9.3 
10 *281:31 *2202:D 15.9786 
11 *281:29 *2091:B 14.7464 
12 *281:25 *2060:B 11.4786 
13 *281:8 *281:92 16.75 
14 *281:92 *2062:A1 9.3 
15 *281:92 *281:101 8.73214 
16 *281:101 *2087:B 15.0679 
17 *281:101 *281:114 4.67857 
18 *281:114 *2088:A1 13.8 
19 *281:114 *281:127 5.94643 
20 *281:127 *281:129 4.5 
21 *281:129 *2085:A1 16.4071 
22 *281:129 *2084:B 12.6214 
23 *281:127 *281:153 14.3929 
24 *281:153 *281:159 7.25 
25 *281:159 *281:175 28.1607 
26 *281:175 *2077:A1 18.8536 
27 *281:175 *281:186 3.46429 
28 *281:186 *2072:A1 16.3893 
29 *281:186 *281:197 4.67857 
30 *281:197 *2068:B 18.0321 
31 *281:197 *2073:B 20.8179 
32 *281:159 *2067:A1 9.72857 
33 *281:153 *2066:B 9.3 
*END

*D_NET *282 0.0377266
*CONN
*I *2197:RESET_B I *D sky130_fd_sc_hd__dfrtp_1
*I *2195:RESET_B I *D sky130_fd_sc_hd__dfrtp_1
*I *2198:RESET_B I *D sky130_fd_sc_hd__dfrtp_1
*I *2200:RESET_B I *D sky130_fd_sc_hd__dfrtp_1
*I *2055:B I *D sky130_fd_sc_hd__nand2_1
*I *2165:RESET_B I *D sky130_fd_sc_hd__dfrtp_1
*I *2164:RESET_B I *D sky130_fd_sc_hd__dfrtp_1
*I *2057:D1 I *D sky130_fd_sc_hd__o2111ai_1
*I *2111:A1 I *D sky130_fd_sc_hd__a21boi_0
*I *2053:A1 I *D sky130_fd_sc_hd__a21oi_1
*I *2196:RESET_B I *D sky130_fd_sc_hd__dfrtp_1
*I *2199:SET_B I *D sky130_fd_sc_hd__dfstp_2
*I *2166:RESET_B I *D sky130_fd_sc_hd__dfrtp_1
*I *2054:B I *D sky130_fd_sc_hd__and2_0
*I *2180:RESET_B I *D sky130_fd_sc_hd__dfrtp_1
*I *2194:RESET_B I *D sky130_fd_sc_hd__dfrtp_1
*I *2044:B1 I *D sky130_fd_sc_hd__o21ai_0
*I *2201:RESET_B I *D sky130_fd_sc_hd__dfrtp_1
*I *2193:RESET_B I *D sky130_fd_sc_hd__dfrtp_1
*I *2179:RESET_B I *D sky130_fd_sc_hd__dfrtp_1
*I *2178:RESET_B I *D sky130_fd_sc_hd__dfrtp_1
*I *2191:RESET_B I *D sky130_fd_sc_hd__dfrtp_1
*I *2192:RESET_B I *D sky130_fd_sc_hd__dfrtp_1
*I *2173:RESET_B I *D sky130_fd_sc_hd__dfrtp_1
*I *2187:RESET_B I *D sky130_fd_sc_hd__dfrtp_1
*I *2177:RESET_B I *D sky130_fd_sc_hd__dfrtp_1
*I *2172:RESET_B I *D sky130_fd_sc_hd__dfrtp_1
*I *2171:RESET_B I *D sky130_fd_sc_hd__dfrtp_1
*I *2186:RESET_B I *D sky130_fd_sc_hd__dfrtp_1
*I *2185:RESET_B I *D sky130_fd_sc_hd__dfrtp_1
*I *2184:RESET_B I *D sky130_fd_sc_hd__dfrtp_1
*I *2342:X O *D sky130_fd_sc_hd__buf_12
*CAP
1 *2197:RESET_B 0.000295847
2 *2195:RESET_B 0.000184864
3 *2198:RESET_B 0.000142347
4 *2200:RESET_B 0
5 *2055:B 3.72704e-05
6 *2165:RESET_B 0.000211439
7 *2164:RESET_B 7.94626e-05
8 *2057:D1 2.03441e-05
9 *2111:A1 0.00032855
10 *2053:A1 0
11 *2196:RESET_B 0.00138634
12 *2199:SET_B 0.000765279
13 *2166:RESET_B 5.6391e-05
14 *2054:B 0.000105415
15 *2180:RESET_B 0
16 *2194:RESET_B 0.00108146
17 *2044:B1 0
18 *2201:RESET_B 0.00022863
19 *2193:RESET_B 0.00010818
20 *2179:RESET_B 0.000552997
21 *2178:RESET_B 0.000949814
22 *2191:RESET_B 0
23 *2192:RESET_B 0.0002184
24 *2173:RESET_B 0.00119237
25 *2187:RESET_B 1.62523e-05
26 *2177:RESET_B 0.000690117
27 *2172:RESET_B 0.00111807
28 *2171:RESET_B 0.0007924
29 *2186:RESET_B 0.000570801
30 *2185:RESET_B 0.000454796
31 *2184:RESET_B 0.000764267
32 *2342:X 0.000309471
33 *282:409 0.000902494
34 *282:365 0.000682532
35 *282:355 0.000697283
36 *282:353 0.000363125
37 *282:351 0.000847965
38 *282:340 0.00114124
39 *282:308 0.000512155
40 *282:247 0.000601623
41 *282:245 0.000532607
42 *282:210 0.00101147
43 *282:204 0.00102294
44 *282:202 0.000574469
45 *282:176 0.000568288
46 *282:113 0.000994596
47 *282:111 0.000574259
48 *282:109 0.000270979
49 *282:107 0.00112351
50 *282:43 0.000842153
51 *2054:B *2054:A 0.000151183
52 *2054:B *2166:D 3.67279e-06
53 *2171:RESET_B *2072:B1 0
54 *2172:RESET_B *2171:D 0.000140933
55 *2173:RESET_B *2173:D 7.17136e-05
56 *2177:RESET_B *2172:D 0.000140832
57 *2178:RESET_B *2177:D 2.57826e-06
58 *2179:RESET_B *2303:A 9.91086e-05
59 *2185:RESET_B *2184:D 5.50052e-05
60 *2185:RESET_B *340:10 7.74135e-05
61 *2186:RESET_B *336:10 0.000173989
62 *2201:RESET_B *299:10 0.000153054
63 *282:107 *2096:B1 6.65302e-05
64 *282:176 *2303:A 0.000218012
65 *282:247 *2054:A 0.00094545
66 *282:247 *2166:D 0.000119798
67 *282:308 *2239:A 0
68 *2041:A *2197:RESET_B 1.69115e-05
69 *2041:A *282:409 0.000225527
70 *2050:A *282:247 0
71 *2052:B *2198:RESET_B 0
72 *2052:B *282:353 0
73 *2052:B *282:355 0
74 *2056:A *282:355 7.54156e-05
75 *2056:A *282:365 0.00021995
76 *2056:B *282:365 0.000141197
77 *2057:A1 *282:340 2.89016e-05
78 *2057:C1 *282:340 8.25843e-06
79 *2057:C1 *282:351 0.000130618
80 *2069:A_N *2197:RESET_B 0.000148911
81 *2071:A1 *2185:RESET_B 4.93118e-06
82 *2071:A2 *2186:RESET_B 0.000127245
83 *2072:A2 *2171:RESET_B 0
84 *2074:B *2197:RESET_B 0
85 *2082:A1 *282:176 7.80929e-05
86 *2096:A2 *2178:RESET_B 7.2143e-05
87 *2096:A2 *2192:RESET_B 5.66971e-05
88 *2096:A2 *282:107 1.67025e-05
89 *2096:A2 *282:109 5.49088e-05
90 *2096:A2 *282:111 7.2527e-05
91 *2104:A2 *2193:RESET_B 0.000312209
92 *2108:A2 *282:202 5.26097e-05
93 *2111:A2 *2111:A1 6.05161e-06
94 *2116:A *2186:RESET_B 3.29297e-05
95 *2117:B2 *2186:RESET_B 6.05161e-06
96 *2122:A1 *2173:RESET_B 0.000142856
97 *2131:B *2192:RESET_B 0.000185408
98 *2132:B2 *2192:RESET_B 9.84673e-05
99 *2133:A *2178:RESET_B 2.89114e-05
100 *2134:A2 *282:111 0.000138425
101 *2134:B1 *282:111 4.0952e-05
102 *2137:B1 *2196:RESET_B 1.32293e-05
103 *2138:A3 *2196:RESET_B 0.000317769
104 *2139:B1 *2196:RESET_B 0.000100248
105 *2151:B1 *282:351 2.57162e-05
106 *2151:B2 *282:351 0.000165303
107 *2157:A *2165:RESET_B 0.000129868
108 *2166:CLK *2166:RESET_B 4.47866e-05
109 *2171:CLK *2172:RESET_B 4.51495e-05
110 *2172:CLK *2177:RESET_B 0.000169808
111 *2184:CLK *2185:RESET_B 8.22387e-06
112 *2186:CLK *2186:RESET_B 6.66548e-05
113 *2187:D *2173:RESET_B 0.00012748
114 *2194:CLK *2196:RESET_B 8.68625e-05
115 *2194:D *2196:RESET_B 0.00022887
116 *2197:D *2197:RESET_B 7.6644e-05
117 *2199:CLK *282:308 0
118 *2199:CLK *282:340 1.74352e-05
119 *2199:D *282:308 0
120 *2199:D *282:340 7.61932e-05
121 *2201:CLK *282:245 4.85567e-05
122 *2201:D *2201:RESET_B 0
123 *2228:A *282:365 0.000124749
124 *2230:A *282:210 6.97972e-05
125 *2232:A *2196:RESET_B 7.62323e-05
126 *2242:A *2195:RESET_B 0.000315366
127 *2244:A *282:409 5.49995e-05
128 *2245:A *2197:RESET_B 4.66203e-05
129 *2245:A *282:409 0.00026454
130 *2255:A *2201:RESET_B 0
131 *2268:A *2193:RESET_B 0.000136631
132 *2274:A *2164:RESET_B 6.05161e-06
133 *2274:A *282:365 2.23592e-05
134 *2285:A *2178:RESET_B 9.84673e-05
135 *2320:A *282:111 0.000121891
136 *2370:A *282:107 8.22359e-05
137 *2370:A *282:109 4.07423e-05
138 *2371:A *282:107 0
139 *4:34 *2198:RESET_B 0
140 *4:34 *282:353 0
141 *4:34 *282:355 0
142 *4:34 *282:365 0
143 *42:80 *2201:RESET_B 9.25014e-06
144 *42:97 *2179:RESET_B 1.3142e-05
145 *42:97 *282:202 0
146 *42:101 *2193:RESET_B 9.41642e-05
147 *42:178 *282:176 0
148 *81:43 *2057:D1 5.7661e-06
149 *81:43 *2111:A1 0
150 *81:43 *282:308 0
151 *81:43 *282:340 3.31889e-05
152 *81:49 *2111:A1 0
153 *88:12 *2197:RESET_B 0.000104974
154 *94:10 *2186:RESET_B 3.29297e-05
155 *113:8 *2192:RESET_B 2.97489e-05
156 *114:8 *2173:RESET_B 5.35423e-05
157 *114:8 *282:113 0
158 *123:8 *2111:A1 5.7661e-06
159 *124:76 *2187:RESET_B 5.83233e-05
160 *124:76 *282:113 0.000214815
161 *124:93 *282:111 3.29297e-05
162 *124:93 *282:113 0.000126312
163 *125:41 *2196:RESET_B 0.000469988
164 *125:41 *282:409 7.66886e-05
165 *162:10 *2195:RESET_B 2.07809e-05
166 *162:10 *2197:RESET_B 5.19402e-05
167 *162:14 *2195:RESET_B 2.69483e-05
168 *165:14 *2111:A1 0
169 *165:27 *2111:A1 0
170 *175:11 *2198:RESET_B 0.000119684
171 *175:47 *2197:RESET_B 0
172 *179:12 *2173:RESET_B 0.000483569
173 *179:96 *2178:RESET_B 0.000142859
174 *181:14 *2171:RESET_B 0
175 *181:14 *2185:RESET_B 5.32071e-05
176 *203:23 *2165:RESET_B 0.00029566
177 *211:12 *2111:A1 0
178 *213:20 *2195:RESET_B 0.000166091
179 *213:58 *2195:RESET_B 8.24706e-05
180 *213:58 *2197:RESET_B 0.000138843
181 *213:92 *2197:RESET_B 0
182 *213:103 *2197:RESET_B 0
183 *215:10 *2172:RESET_B 4.17828e-05
184 *261:23 *2111:A1 0
185 *261:23 *2199:SET_B 9.25014e-06
186 *261:23 *282:308 0
187 *262:14 *2054:B 2.89016e-05
188 *265:30 *2194:RESET_B 9.84729e-05
189 *265:30 *282:204 4.88537e-05
190 *267:10 *2184:RESET_B 0.000216867
191 *276:12 *2186:RESET_B 0.000120065
192 *280:28 *2164:RESET_B 4.05206e-05
193 *280:28 *282:365 0.000100464
*RES
1 *2342:X *2184:RESET_B 24.1125 
2 *2184:RESET_B *2185:RESET_B 15.9464 
3 *2185:RESET_B *282:43 4.5 
4 *282:43 *2186:RESET_B 15.5446 
5 *282:43 *2171:RESET_B 9.48214 
6 *2171:RESET_B *2172:RESET_B 7.67857 
7 *2172:RESET_B *2177:RESET_B 8.5 
8 *2177:RESET_B *282:107 7.35714 
9 *282:107 *282:109 2.25 
10 *282:109 *282:111 4.98214 
11 *282:111 *282:113 4.375 
12 *282:113 *2187:RESET_B 5.23214 
13 *282:113 *2173:RESET_B 28.0982 
14 *282:111 *2192:RESET_B 9.08036 
15 *282:109 *2191:RESET_B 4.5 
16 *282:107 *2178:RESET_B 17.5625 
17 *2173:RESET_B *282:176 12.5179 
18 *282:176 *2179:RESET_B 6.14286 
19 *282:176 *2193:RESET_B 7.84821 
20 *2179:RESET_B *282:202 13.2857 
21 *282:202 *282:204 1.94643 
22 *282:204 *282:210 19.1786 
23 *282:210 *2201:RESET_B 13.375 
24 *282:210 *2044:B1 9.3 
25 *282:204 *2194:RESET_B 6.61607 
26 *282:202 *2180:RESET_B 4.5 
27 *2201:RESET_B *282:245 4.97321 
28 *282:245 *282:247 13.1786 
29 *282:247 *2054:B 16.2821 
30 *282:247 *2166:RESET_B 5.38393 
31 *282:245 *2199:SET_B 6.14286 
32 *2194:RESET_B *2196:RESET_B 27.4643 
33 *2199:SET_B *282:308 7.66071 
34 *282:308 *2053:A1 13.8 
35 *282:308 *2111:A1 19.1393 
36 *2199:SET_B *282:340 6.79464 
37 *282:340 *2057:D1 9.72857 
38 *282:340 *282:351 14.8929 
39 *282:351 *282:353 1.64286 
40 *282:353 *282:355 5.28571 
41 *282:355 *282:365 13.25 
42 *282:365 *2164:RESET_B 1.29464 
43 *282:365 *2165:RESET_B 14.2857 
44 *282:355 *2055:B 14.3357 
45 *282:353 *2200:RESET_B 4.5 
46 *282:351 *2198:RESET_B 7.66071 
47 *2196:RESET_B *282:409 12.3661 
48 *282:409 *2195:RESET_B 10.3214 
49 *282:409 *2197:RESET_B 11 
*END

*D_NET *283 0.000404301
*CONN
*I *2073:A I *D sky130_fd_sc_hd__nor2_1
*I *2277:X O *D sky130_fd_sc_hd__dlygate4sd3_1
*CAP
1 *2073:A 0.00012052
2 *2277:X 0.00012052
3 *2073:B *2073:A 9.90367e-05
4 *2278:A *2073:A 0
5 *2346:A *2073:A 6.42242e-05
*RES
1 *2277:X *2073:A 30.1893 
*END

*D_NET *284 0.00100657
*CONN
*I *2077:B1 I *D sky130_fd_sc_hd__a21oi_1
*I *2278:X O *D sky130_fd_sc_hd__dlygate4sd3_1
*CAP
1 *2077:B1 0.000363873
2 *2278:X 0.000363873
3 *2077:B1 *2172:D 0
4 *2077:A1 *2077:B1 0.000100165
5 *2077:A2 *2077:B1 2.53112e-06
6 *2279:A *2077:B1 0.00014822
7 *215:10 *2077:B1 2.79092e-05
8 *281:186 *2077:B1 0
9 *281:197 *2077:B1 0
*RES
1 *2278:X *2077:B1 35.35 
*END

*D_NET *285 0.000448981
*CONN
*I *2172:D I *D sky130_fd_sc_hd__dfrtp_1
*I *2279:X O *D sky130_fd_sc_hd__dlygate4sd3_1
*CAP
1 *2172:D 0.000154075
2 *2279:X 0.000154075
3 *2077:B1 *2172:D 0
4 *2177:RESET_B *2172:D 0.000140832
5 *270:14 *2172:D 0
*RES
1 *2279:X *2172:D 30.2964 
*END

*D_NET *286 0.000652966
*CONN
*I *2068:A I *D sky130_fd_sc_hd__nor2_1
*I *2280:X O *D sky130_fd_sc_hd__dlygate4sd3_1
*CAP
1 *2068:A 0.000166471
2 *2280:X 0.000166471
3 *2281:A *2068:A 0.000320024
*RES
1 *2280:X *2068:A 22.4214 
*END

*D_NET *287 0.000756758
*CONN
*I *2072:B1 I *D sky130_fd_sc_hd__a21oi_1
*I *2281:X O *D sky130_fd_sc_hd__dlygate4sd3_1
*CAP
1 *2072:B1 0.000332138
2 *2281:X 0.000332138
3 *2072:B1 *2171:D 0
4 *2171:CLK *2072:B1 0
5 *2171:RESET_B *2072:B1 0
6 *2282:A *2072:B1 9.24825e-05
7 *2365:A *2072:B1 0
8 *181:14 *2072:B1 0
9 *204:10 *2072:B1 0
*RES
1 *2281:X *2072:B1 33.5464 
*END

*D_NET *288 0.000468994
*CONN
*I *2048:B1_N I *D sky130_fd_sc_hd__a21boi_0
*I *2336:X O *D sky130_fd_sc_hd__buf_2
*CAP
1 *2048:B1_N 0.000171317
2 *2336:X 0.000171317
3 *2336:A *2048:B1_N 1.92905e-05
4 *266:14 *2048:B1_N 0.00010707
*RES
1 *2336:X *2048:B1_N 30.2964 
*END

*D_NET *289 0.000435923
*CONN
*I *2171:D I *D sky130_fd_sc_hd__dfrtp_1
*I *2282:X O *D sky130_fd_sc_hd__dlygate4sd3_1
*CAP
1 *2171:D 0.000128207
2 *2282:X 0.000128207
3 *2072:B1 *2171:D 0
4 *2171:CLK *2171:D 3.85763e-05
5 *2172:RESET_B *2171:D 0.000140933
*RES
1 *2282:X *2171:D 30.2964 
*END

*D_NET *290 0.000415557
*CONN
*I *2093:A I *D sky130_fd_sc_hd__nor2_1
*I *2283:X O *D sky130_fd_sc_hd__dlygate4sd3_1
*CAP
1 *2093:A 0.000139945
2 *2283:X 0.000139945
3 *2284:A *2093:A 6.81773e-05
4 *2351:A *2093:A 6.74911e-05
5 *2370:A *2093:A 0
*RES
1 *2283:X *2093:A 30.6 
*END

*D_NET *291 0.00068296
*CONN
*I *2096:B1 I *D sky130_fd_sc_hd__a21oi_1
*I *2284:X O *D sky130_fd_sc_hd__dlygate4sd3_1
*CAP
1 *2096:B1 0.000230481
2 *2284:X 0.000230481
3 *2096:A1 *2096:B1 0.000155469
4 *2370:A *2096:B1 0
5 *282:107 *2096:B1 6.65302e-05
*RES
1 *2284:X *2096:B1 32.3143 
*END

*D_NET *292 0.000569235
*CONN
*I *2177:D I *D sky130_fd_sc_hd__dfrtp_1
*I *2285:X O *D sky130_fd_sc_hd__dlygate4sd3_1
*CAP
1 *2177:D 0.000178002
2 *2285:X 0.000178002
3 *2096:A1 *2177:D 0.00010326
4 *2096:A2 *2177:D 3.67142e-05
5 *2178:RESET_B *2177:D 2.57826e-06
6 *2285:A *2177:D 1.72894e-05
7 *2371:A *2177:D 5.33882e-05
*RES
1 *2285:X *2177:D 30.7071 
*END

*D_NET *293 0.00100601
*CONN
*I *2110:A0 I *D sky130_fd_sc_hd__mux2_1
*I *2286:X O *D sky130_fd_sc_hd__dlygate4sd3_1
*CAP
1 *2110:A0 0.000200036
2 *2286:X 0.000200036
3 *2110:S *2110:A0 0.000574073
4 *2260:A *2110:A0 3.18676e-05
*RES
1 *2286:X *2110:A0 24.0643 
*END

*D_NET *294 0.00103927
*CONN
*I *2182:D I *D sky130_fd_sc_hd__dfrtp_1
*I *2287:X O *D sky130_fd_sc_hd__dlygate4sd3_1
*CAP
1 *2182:D 0.000395929
2 *2287:X 0.000395929
3 *2059:S *2182:D 6.74911e-05
4 *2168:RESET_B *2182:D 5.00521e-05
5 *81:10 *2182:D 0.000129868
*RES
1 *2287:X *2182:D 33.475 
*END

*D_NET *295 0.000430531
*CONN
*I *2099:A I *D sky130_fd_sc_hd__nor2_1
*I *2288:X O *D sky130_fd_sc_hd__dlygate4sd3_1
*CAP
1 *2099:A 0.000126717
2 *2288:X 0.000126717
3 *2352:A *2099:A 0.000177098
4 *42:204 *2099:A 0
*RES
1 *2288:X *2099:A 30.0821 
*END

*D_NET *296 0.00010393
*CONN
*I *2100:B1 I *D sky130_fd_sc_hd__a21oi_1
*I *2289:X O *D sky130_fd_sc_hd__dlygate4sd3_1
*CAP
1 *2100:B1 2.36166e-05
2 *2289:X 2.36166e-05
3 *2100:A2 *2100:B1 5.66971e-05
*RES
1 *2289:X *2100:B1 19.1357 
*END

*D_NET *297 0.000663686
*CONN
*I *2178:D I *D sky130_fd_sc_hd__dfrtp_1
*I *2290:X O *D sky130_fd_sc_hd__dlygate4sd3_1
*CAP
1 *2178:D 0.000254733
2 *2290:X 0.000254733
3 *2289:A *2178:D 0.000100823
4 *2290:A *2178:D 5.33978e-05
*RES
1 *2290:X *2178:D 31.1179 
*END

*D_NET *298 0.00046879
*CONN
*I *2066:A I *D sky130_fd_sc_hd__nor2_1
*I *2291:X O *D sky130_fd_sc_hd__dlygate4sd3_1
*CAP
1 *2066:A 0.000211016
2 *2291:X 0.000211016
3 *2174:RESET_B *2066:A 4.07062e-05
4 *2293:A *2066:A 6.05161e-06
*RES
1 *2291:X *2066:A 31.4214 
*END

*D_NET *299 0.00631468
*CONN
*I *2372:A I *D sky130_fd_sc_hd__buf_2
*I *2045:A I *D sky130_fd_sc_hd__inv_1
*I *2044:Y O *D sky130_fd_sc_hd__o21ai_0
*CAP
1 *2372:A 0.000164757
2 *2045:A 1.92089e-06
3 *2044:Y 5.48728e-05
4 *299:14 0.00147589
5 *299:10 0.00136408
6 ready *2372:A 0.000100684
7 *2201:RESET_B *299:10 0.000153054
8 *2255:A *299:10 4.79842e-05
9 *2358:A *2045:A 6.3906e-06
10 *2358:A *2372:A 4.34812e-05
11 *2358:A *299:14 2.2568e-05
12 *261:23 *299:10 0
13 *261:23 *299:14 0.00287899
*RES
1 *2044:Y *299:10 20.2464 
2 *299:10 *299:14 36.3973 
3 *299:14 *2045:A 9.53661 
4 *299:14 *2372:A 13.1527 
*END

*D_NET *300 0.000472474
*CONN
*I *2067:B1 I *D sky130_fd_sc_hd__a21oi_1
*I *2292:X O *D sky130_fd_sc_hd__dlygate4sd3_1
*CAP
1 *2067:B1 9.9326e-05
2 *2292:X 9.9326e-05
3 *281:159 *2067:B1 0.000273822
*RES
1 *2292:X *2067:B1 21.1893 
*END

*D_NET *301 0.000513445
*CONN
*I *2170:D I *D sky130_fd_sc_hd__dfrtp_1
*I *2293:X O *D sky130_fd_sc_hd__dlygate4sd3_1
*CAP
1 *2170:D 0.000256723
2 *2293:X 0.000256723
*RES
1 *2293:X *2170:D 31.8321 
*END

*D_NET *302 0.000111999
*CONN
*I *2107:A I *D sky130_fd_sc_hd__nor2_1
*I *2294:X O *D sky130_fd_sc_hd__dlygate4sd3_1
*CAP
1 *2107:A 1.42311e-05
2 *2294:X 1.42311e-05
3 *2107:B *2107:A 5.50052e-05
4 *2295:A *2107:A 2.85321e-05
*RES
1 *2294:X *2107:A 19.1357 
*END

*D_NET *303 0.000126884
*CONN
*I *2108:B1 I *D sky130_fd_sc_hd__a21oi_1
*I *2295:X O *D sky130_fd_sc_hd__dlygate4sd3_1
*CAP
1 *2108:B1 6.29488e-06
2 *2295:X 6.29488e-06
3 *2296:A *2108:B1 5.71472e-05
4 *42:80 *2108:B1 5.71472e-05
*RES
1 *2295:X *2108:B1 19.1357 
*END

*D_NET *304 0.000526934
*CONN
*I *2180:D I *D sky130_fd_sc_hd__dfrtp_1
*I *2296:X O *D sky130_fd_sc_hd__dlygate4sd3_1
*CAP
1 *2180:D 0.00021584
2 *2296:X 0.00021584
3 *2139:A2 *2180:D 2.29112e-05
4 *2180:CLK *2180:D 7.2342e-05
*RES
1 *2296:X *2180:D 30.7339 
*END

*D_NET *305 0.000218801
*CONN
*I *2091:A I *D sky130_fd_sc_hd__nor2_1
*I *2297:X O *D sky130_fd_sc_hd__dlygate4sd3_1
*CAP
1 *2091:A 9.10379e-05
2 *2297:X 9.10379e-05
3 *2298:A *2091:A 3.67252e-05
*RES
1 *2297:X *2091:A 20.3679 
*END

*D_NET *306 0.000592066
*CONN
*I *2092:B1 I *D sky130_fd_sc_hd__a21oi_1
*I *2298:X O *D sky130_fd_sc_hd__dlygate4sd3_1
*CAP
1 *2092:B1 0.000239859
2 *2298:X 0.000239859
3 *2092:A2 *2092:B1 3.0285e-05
4 *273:6 *2092:B1 8.20629e-05
5 *281:29 *2092:B1 0
*RES
1 *2298:X *2092:B1 31.1179 
*END

*D_NET *307 0.000571644
*CONN
*I *2176:D I *D sky130_fd_sc_hd__dfrtp_1
*I *2299:X O *D sky130_fd_sc_hd__dlygate4sd3_1
*CAP
1 *2176:D 0.000178328
2 *2299:X 0.000178328
3 *2190:RESET_B *2176:D 8.68344e-05
4 *281:29 *2176:D 0.000128154
*RES
1 *2299:X *2176:D 31.4214 
*END

*D_NET *308 6.37568e-05
*CONN
*I *2084:A I *D sky130_fd_sc_hd__nor2_1
*I *2300:X O *D sky130_fd_sc_hd__dlygate4sd3_1
*CAP
1 *2084:A 3.18784e-05
2 *2300:X 3.18784e-05
*RES
1 *2300:X *2084:A 19.1357 
*END

*D_NET *309 0.000860278
*CONN
*I *2085:B1 I *D sky130_fd_sc_hd__a21oi_1
*I *2301:X O *D sky130_fd_sc_hd__dlygate4sd3_1
*CAP
1 *2085:B1 8.93204e-05
2 *2301:X 8.93204e-05
3 *2085:A1 *2085:B1 0.000488398
4 *2302:A *2085:B1 0.000162372
5 *196:6 *2085:B1 3.08664e-05
*RES
1 *2301:X *2085:B1 23.2429 
*END

*D_NET *310 0.00335581
*CONN
*I *2373:A I *D sky130_fd_sc_hd__buf_2
*I *2056:Y O *D sky130_fd_sc_hd__nor2_1
*CAP
1 *2373:A 0
2 *2056:Y 0.00165893
3 *310:10 0.00165893
4 *310:10 *2168:D 3.79467e-05
5 *2233:A *310:10 0
*RES
1 *2056:Y *310:10 49.3893 
2 *310:10 *2373:A 9.3 
*END

*D_NET *311 0.000868394
*CONN
*I *2174:D I *D sky130_fd_sc_hd__dfrtp_1
*I *2302:X O *D sky130_fd_sc_hd__dlygate4sd3_1
*CAP
1 *2174:D 0.000272113
2 *2302:X 0.000272113
3 *2174:RESET_B *2174:D 0
4 *281:153 *2174:D 0.000324167
*RES
1 *2302:X *2174:D 33.0286 
*END

*D_NET *312 0.000703585
*CONN
*I *2103:A I *D sky130_fd_sc_hd__nor2_1
*I *2303:X O *D sky130_fd_sc_hd__dlygate4sd3_1
*CAP
1 *2103:A 0.000351793
2 *2303:X 0.000351793
*RES
1 *2303:X *2103:A 32.1357 
*END

*D_NET *313 0.000126884
*CONN
*I *2104:B1 I *D sky130_fd_sc_hd__a21oi_1
*I *2304:X O *D sky130_fd_sc_hd__dlygate4sd3_1
*CAP
1 *2104:B1 6.29488e-06
2 *2304:X 6.29488e-06
3 *2104:A2 *2104:B1 5.71472e-05
4 *42:101 *2104:B1 5.71472e-05
*RES
1 *2304:X *2104:B1 19.1357 
*END

*D_NET *314 0.000777033
*CONN
*I *2179:D I *D sky130_fd_sc_hd__dfrtp_1
*I *2305:X O *D sky130_fd_sc_hd__dlygate4sd3_1
*CAP
1 *2179:D 0.000262468
2 *2305:X 0.000262468
3 *2104:A2 *2179:D 0.000252098
4 *2215:A *2179:D 0
5 *42:97 *2179:D 0
6 *179:22 *2179:D 0
*RES
1 *2305:X *2179:D 32.3143 
*END

*D_NET *315 0.00100162
*CONN
*I *2087:A I *D sky130_fd_sc_hd__nor2_1
*I *2306:X O *D sky130_fd_sc_hd__dlygate4sd3_1
*CAP
1 *2087:A 0.000434002
2 *2306:X 0.000434002
3 *2087:A *2175:D 7.15962e-05
4 *2087:B *2087:A 1.48252e-05
5 *2307:A *2087:A 0
6 *248:6 *2087:A 2.27416e-05
7 *281:114 *2087:A 2.44568e-05
*RES
1 *2306:X *2087:A 33.475 
*END

*D_NET *316 0.000326317
*CONN
*I *2088:B1 I *D sky130_fd_sc_hd__a21oi_1
*I *2307:X O *D sky130_fd_sc_hd__dlygate4sd3_1
*CAP
1 *2088:B1 0.000114501
2 *2307:X 0.000114501
3 *2273:A *2088:B1 7.83659e-05
4 *2307:A *2088:B1 0
5 *281:114 *2088:B1 5.80706e-06
6 *281:127 *2088:B1 1.3142e-05
*RES
1 *2307:X *2088:B1 29.475 
*END

*D_NET *317 0.000828316
*CONN
*I *2175:D I *D sky130_fd_sc_hd__dfrtp_1
*I *2308:X O *D sky130_fd_sc_hd__dlygate4sd3_1
*CAP
1 *2175:D 0.000332944
2 *2308:X 0.000332944
3 *2087:A *2175:D 7.15962e-05
4 *2175:RESET_B *2175:D 4.50774e-05
5 *2307:A *2175:D 4.57538e-05
6 *281:114 *2175:D 0
*RES
1 *2308:X *2175:D 33.8857 
*END

*D_NET *318 0.000791079
*CONN
*I *2060:A I *D sky130_fd_sc_hd__nor2_1
*I *2309:X O *D sky130_fd_sc_hd__dlygate4sd3_1
*CAP
1 *2060:A 0.00026058
2 *2309:X 0.00026058
3 *2310:A *2060:A 0.000269919
4 *277:120 *2060:A 0
*RES
1 *2309:X *2060:A 33.475 
*END

*D_NET *319 0.00169296
*CONN
*I *2062:B1 I *D sky130_fd_sc_hd__a21oi_1
*I *2310:X O *D sky130_fd_sc_hd__dlygate4sd3_1
*CAP
1 *2062:B1 0.000438245
2 *2310:X 0.000438245
3 *2087:B *2062:B1 5.50052e-05
4 *2270:A *2062:B1 6.45442e-05
5 *2307:A *2062:B1 0.000226274
6 *2311:A *2062:B1 0.00011437
7 *281:101 *2062:B1 0.000356281
*RES
1 *2310:X *2062:B1 38.5643 
*END

*D_NET *320 0.000707515
*CONN
*I *2169:D I *D sky130_fd_sc_hd__dfrtp_1
*I *2311:X O *D sky130_fd_sc_hd__dlygate4sd3_1
*CAP
1 *2169:D 0.000353757
2 *2311:X 0.000353757
3 *2169:RESET_B *2169:D 0
*RES
1 *2311:X *2169:D 34.1 
*END

*D_NET *321 0.00333517
*CONN
*I *2374:A I *D sky130_fd_sc_hd__buf_2
*I *2309:A I *D sky130_fd_sc_hd__dlygate4sd3_1
*I *2169:Q O *D sky130_fd_sc_hd__dfrtp_1
*CAP
1 *2374:A 0.00147638
2 *2309:A 0.00166759
3 *2169:Q 0.000191209
*RES
1 *2169:Q *2309:A 21.6 
2 *2309:A *2374:A 43.3679 
*END

*D_NET *322 0.000492436
*CONN
*I *2109:A0 I *D sky130_fd_sc_hd__mux2_1
*I *2312:X O *D sky130_fd_sc_hd__dlygate4sd3_1
*CAP
1 *2109:A0 0.000148743
2 *2312:X 0.000148743
3 *2110:S *2109:A0 9.99853e-05
4 *281:37 *2109:A0 9.49658e-05
*RES
1 *2312:X *2109:A0 21.6 
*END

*D_NET *323 0.000237774
*CONN
*I *2181:D I *D sky130_fd_sc_hd__dfrtp_1
*I *2313:X O *D sky130_fd_sc_hd__dlygate4sd3_1
*CAP
1 *2181:D 6.90592e-05
2 *2313:X 6.90592e-05
3 *2262:A *2181:D 9.96553e-05
*RES
1 *2313:X *2181:D 28.9393 
*END

*D_NET *324 0.000355519
*CONN
*I *2081:A I *D sky130_fd_sc_hd__nor2_1
*I *2314:X O *D sky130_fd_sc_hd__dlygate4sd3_1
*CAP
1 *2081:A 0.000115435
2 *2314:X 0.000115435
3 *2315:A *2081:A 8.00806e-05
4 *42:178 *2081:A 3.54096e-05
5 *42:191 *2081:A 9.15842e-06
*RES
1 *2314:X *2081:A 30.0821 
*END

*D_NET *325 0.0011517
*CONN
*I *2082:B1 I *D sky130_fd_sc_hd__a21oi_1
*I *2315:X O *D sky130_fd_sc_hd__dlygate4sd3_1
*CAP
1 *2082:B1 0.000401539
2 *2315:X 0.000401539
3 *2135:A *2082:B1 0
4 *42:178 *2082:B1 0.000344932
5 *179:16 *2082:B1 0
6 *179:70 *2082:B1 3.69047e-06
*RES
1 *2315:X *2082:B1 34.5643 
*END

*D_NET *326 0.000579715
*CONN
*I *2173:D I *D sky130_fd_sc_hd__dfrtp_1
*I *2316:X O *D sky130_fd_sc_hd__dlygate4sd3_1
*CAP
1 *2173:D 0.000171695
2 *2316:X 0.000171695
3 *2133:B *2173:D 0
4 *2173:RESET_B *2173:D 7.17136e-05
5 *179:12 *2173:D 9.71197e-05
6 *179:16 *2173:D 6.74911e-05
*RES
1 *2316:X *2173:D 31.4214 
*END

*D_NET *327 0.00190965
*CONN
*I *2046:B I *D sky130_fd_sc_hd__nor3b_1
*I *2163:A1 I *D sky130_fd_sc_hd__o22a_1
*I *2162:A1 I *D sky130_fd_sc_hd__a21boi_0
*I *2317:X O *D sky130_fd_sc_hd__dlygate4sd3_1
*CAP
1 *2046:B 0.000153757
2 *2163:A1 2.06112e-05
3 *2162:A1 9.24529e-05
4 *2317:X 0
5 *327:21 0.000327184
6 *327:4 0.000245269
7 *2156:A *2046:B 0.000144773
8 *2156:B *2046:B 0.000241893
9 *2158:C *2046:B 5.23139e-05
10 *2161:B1 *327:21 0.000237005
11 *2162:A2 *2162:A1 5.66971e-05
12 *2163:A2 *2046:B 2.14658e-05
13 *2163:A2 *327:21 2.89114e-05
14 *2163:B1 *327:21 0.000114084
15 *2163:B2 *2046:B 9.15291e-05
16 *2163:B2 *2163:A1 3.99614e-06
17 *2163:B2 *327:21 2.89114e-05
18 *148:50 *2163:A1 0
19 *151:10 *2046:B 4.87953e-05
*RES
1 *2317:X *327:4 9.3 
2 *327:4 *2162:A1 10.675 
3 *327:4 *327:21 13.6071 
4 *327:21 *2163:A1 9.72857 
5 *327:21 *2046:B 13.9429 
*END

*D_NET *328 0.000527945
*CONN
*I *2166:D I *D sky130_fd_sc_hd__dfrtp_1
*I *2318:X O *D sky130_fd_sc_hd__dlygate4sd3_1
*CAP
1 *2166:D 0.000202237
2 *2318:X 0.000202237
3 *2054:B *2166:D 3.67279e-06
4 *282:247 *2166:D 0.000119798
*RES
1 *2318:X *2166:D 32.2786 
*END

*D_NET *329 0.000650634
*CONN
*I *2095:B1 I *D sky130_fd_sc_hd__o21ai_0
*I *2132:A1 I *D sky130_fd_sc_hd__a22o_1
*I *2319:X O *D sky130_fd_sc_hd__dlygate4sd3_1
*CAP
1 *2095:B1 0
2 *2132:A1 7.96563e-05
3 *2319:X 8.59117e-05
4 *329:10 0.000165568
5 *2098:A1 *329:10 3.79336e-05
6 *2132:B2 *2132:A1 5.4386e-05
7 *113:8 *2132:A1 0.000227179
*RES
1 *2319:X *329:10 19.9429 
2 *329:10 *2132:A1 11.9071 
3 *329:10 *2095:B1 9.3 
*END

*D_NET *330 0.000424829
*CONN
*I *2191:D I *D sky130_fd_sc_hd__dfrtp_1
*I *2320:X O *D sky130_fd_sc_hd__dlygate4sd3_1
*CAP
1 *2191:D 0.000111042
2 *2320:X 0.000111042
3 *2096:A2 *2191:D 5.107e-05
4 *2134:B1 *2191:D 9.84673e-05
5 *2371:A *2191:D 5.32071e-05
*RES
1 *2320:X *2191:D 29.8857 
*END

*D_NET *331 0.00181179
*CONN
*I *2134:A1 I *D sky130_fd_sc_hd__a22o_1
*I *2098:B1 I *D sky130_fd_sc_hd__o21ai_0
*I *2321:X O *D sky130_fd_sc_hd__dlygate4sd3_1
*CAP
1 *2134:A1 9.46205e-05
2 *2098:B1 3.05726e-05
3 *2321:X 9.92056e-05
4 *331:10 0.000224399
5 *2100:A2 *331:10 6.05161e-06
6 *2133:B *2098:B1 2.39153e-05
7 *2133:B *331:10 9.03222e-06
8 *2134:A2 *2134:A1 0.000315806
9 *2134:B1 *2134:A1 0.000219274
10 *2134:B2 *2134:A1 0.000571411
11 *2134:B2 *331:10 7.58841e-05
12 *115:10 *2098:B1 5.30196e-05
13 *115:10 *331:10 8.85967e-05
*RES
1 *2321:X *331:10 15.675 
2 *331:10 *2098:B1 14.5321 
3 *331:10 *2134:A1 19.2643 
*END

*D_NET *332 0.00565554
*CONN
*I *2303:A I *D sky130_fd_sc_hd__dlygate4sd3_1
*I *2375:A I *D sky130_fd_sc_hd__buf_2
*I *2179:Q O *D sky130_fd_sc_hd__dfrtp_1
*CAP
1 *2303:A 0.000450351
2 *2375:A 0
3 *2179:Q 0.00251527
4 *332:10 0.00206492
5 data[10] *332:10 0
6 trial_code[10] *332:10 0
7 *2082:A1 *2303:A 0.000231226
8 *2179:RESET_B *2303:A 9.91086e-05
9 *42:97 *2303:A 7.6644e-05
10 *282:176 *2303:A 0.000218012
*RES
1 *2179:Q *332:10 48.5143 
2 *332:10 *2375:A 13.8 
3 *2179:Q *2303:A 35.4929 
*END

*D_NET *333 0.000246715
*CONN
*I *2192:D I *D sky130_fd_sc_hd__dfrtp_1
*I *2322:X O *D sky130_fd_sc_hd__dlygate4sd3_1
*CAP
1 *2192:D 0.000123357
2 *2322:X 0.000123357
*RES
1 *2322:X *2192:D 29.85 
*END

*D_NET *334 0.00168543
*CONN
*I *2119:A1 I *D sky130_fd_sc_hd__a22o_1
*I *2071:B1 I *D sky130_fd_sc_hd__o21ai_0
*I *2323:X O *D sky130_fd_sc_hd__dlygate4sd3_1
*CAP
1 *2119:A1 0.000217595
2 *2071:B1 3.28966e-05
3 *2323:X 0.000201142
4 *334:10 0.000451634
5 *2119:A1 *2185:D 0.000143633
6 *2071:A2 *2119:A1 0.000268049
7 *2324:A *2119:A1 4.71921e-05
8 *95:6 *2119:A1 3.15815e-05
9 *181:14 *2071:B1 4.50762e-05
10 *181:14 *334:10 0.000236538
11 *181:18 *2071:B1 1.00887e-05
*RES
1 *2323:X *334:10 18.1036 
2 *334:10 *2071:B1 14.5321 
3 *334:10 *2119:A1 18.8536 
*END

*D_NET *335 0.000491276
*CONN
*I *2185:D I *D sky130_fd_sc_hd__dfrtp_1
*I *2324:X O *D sky130_fd_sc_hd__dlygate4sd3_1
*CAP
1 *2185:D 0.000157906
2 *2324:X 0.000157906
3 *2072:A2 *2185:D 3.18309e-05
4 *2119:A1 *2185:D 0.000143633
*RES
1 *2324:X *2185:D 30.2964 
*END

*D_NET *336 0.00247207
*CONN
*I *2121:A1 I *D sky130_fd_sc_hd__a22o_1
*I *2076:B1 I *D sky130_fd_sc_hd__o21ai_0
*I *2325:X O *D sky130_fd_sc_hd__dlygate4sd3_1
*CAP
1 *2121:A1 0.000231609
2 *2076:B1 0.000205792
3 *2325:X 0.000246002
4 *336:10 0.000683403
5 *2121:A1 *2186:D 0.000139337
6 *2076:A2 *2076:B1 0.000144773
7 *2118:B *2076:B1 4.89044e-05
8 *2118:B *336:10 4.88537e-05
9 *2121:B1 *2121:A1 5.03772e-05
10 *2186:CLK *336:10 3.01877e-05
11 *2186:RESET_B *336:10 0.000173989
12 *2326:A *2121:A1 0.000127353
13 *99:6 *2076:B1 5.71472e-05
14 *161:54 *2076:B1 0.000101545
15 *161:54 *2121:A1 1.84421e-05
16 *181:80 *2076:B1 4.88637e-05
17 *281:175 *2076:B1 5.2958e-05
18 *281:175 *2121:A1 1.58163e-05
19 *281:175 *336:10 4.67214e-05
*RES
1 *2325:X *336:10 17.7286 
2 *336:10 *2076:B1 18.9607 
3 *336:10 *2121:A1 18.8536 
*END

*D_NET *337 0.000606607
*CONN
*I *2186:D I *D sky130_fd_sc_hd__dfrtp_1
*I *2326:X O *D sky130_fd_sc_hd__dlygate4sd3_1
*CAP
1 *2186:D 0.000130959
2 *2326:X 0.000130959
3 *2077:A2 *2186:D 0.000103437
4 *2121:A1 *2186:D 0.000139337
5 *276:25 *2186:D 0.000101915
*RES
1 *2326:X *2186:D 30.2964 
*END

*D_NET *338 0.000856761
*CONN
*I *2110:A1 I *D sky130_fd_sc_hd__mux2_1
*I *2059:A1 I *D sky130_fd_sc_hd__mux2_1
*I *2327:X O *D sky130_fd_sc_hd__dlygate4sd3_1
*CAP
1 *2110:A1 9.51689e-05
2 *2059:A1 6.17285e-05
3 *2327:X 0.000167701
4 *338:10 0.000324598
5 *2058:A0 *2110:A1 0
6 *2058:A0 *338:10 0
7 *2059:A0 *338:10 2.79092e-05
8 *2059:S *2110:A1 0.000179656
9 *81:10 *2110:A1 0
10 *81:10 *338:10 0
*RES
1 *2327:X *338:10 16.3893 
2 *338:10 *2059:A1 14.7464 
3 *338:10 *2110:A1 16.3536 
*END

*D_NET *339 0.000489717
*CONN
*I *2168:D I *D sky130_fd_sc_hd__dfrtp_1
*I *2328:X O *D sky130_fd_sc_hd__dlygate4sd3_1
*CAP
1 *2168:D 0.00018552
2 *2328:X 0.00018552
3 *2168:CLK *2168:D 8.07313e-05
4 *310:10 *2168:D 3.79467e-05
*RES
1 *2328:X *2168:D 31.1179 
*END

*D_NET *340 0.00228833
*CONN
*I *2117:A1 I *D sky130_fd_sc_hd__a22o_1
*I *2065:B1 I *D sky130_fd_sc_hd__o21ai_0
*I *2329:X O *D sky130_fd_sc_hd__dlygate4sd3_1
*CAP
1 *2117:A1 0
2 *2065:B1 0.000134131
3 *2329:X 0.000642485
4 *340:10 0.000776615
5 *2065:A1 *2065:B1 1.33343e-05
6 *2067:A2 *2065:B1 3.20512e-05
7 *2116:A *2065:B1 6.26672e-05
8 *2185:RESET_B *340:10 7.74135e-05
9 *2264:A *340:10 0.000166956
10 *181:14 *340:10 2.20111e-05
11 *181:18 *2065:B1 8.08608e-06
12 *181:18 *340:10 5.5422e-05
13 *278:32 *2065:B1 0.000124012
14 *279:109 *2065:B1 7.70717e-05
15 *279:109 *340:10 5.54817e-06
16 *281:175 *2065:B1 9.05283e-05
*RES
1 *2329:X *340:10 23.6393 
2 *340:10 *2065:B1 18.0857 
3 *340:10 *2117:A1 13.8 
*END

*D_NET *341 0.000554432
*CONN
*I *2184:D I *D sky130_fd_sc_hd__dfrtp_1
*I *2330:X O *D sky130_fd_sc_hd__dlygate4sd3_1
*CAP
1 *2184:D 0.000195966
2 *2330:X 0.000195966
3 *2170:CLK *2184:D 6.05161e-06
4 *2184:CLK *2184:D 8.66559e-05
5 *2185:RESET_B *2184:D 5.50052e-05
6 *2330:A *2184:D 1.47872e-05
*RES
1 *2330:X *2184:D 30.9214 
*END

*D_NET *342 0.0011753
*CONN
*I *2115:A1 I *D sky130_fd_sc_hd__a22o_1
*I *2061:B1 I *D sky130_fd_sc_hd__o21ai_0
*I *2331:X O *D sky130_fd_sc_hd__dlygate4sd3_1
*CAP
1 *2115:A1 7.53081e-05
2 *2061:B1 6.43869e-05
3 *2331:X 0.000323501
4 *342:6 0.000463196
5 *2114:A *2061:B1 6.05161e-06
6 *2183:D *342:6 9.82681e-05
7 *279:90 *2115:A1 8.6052e-05
8 *281:92 *2115:A1 5.85373e-05
*RES
1 *2331:X *342:6 15.175 
2 *342:6 *2061:B1 10.2464 
3 *342:6 *2115:A1 20.55 
*END

*D_NET *343 0.00067678
*CONN
*I *2239:A I *D sky130_fd_sc_hd__dlygate4sd3_1
*I *2199:Q O *D sky130_fd_sc_hd__dfstp_2
*CAP
1 *2239:A 0.000285527
2 *2199:Q 0.000285527
3 *261:23 *2239:A 0.000105726
4 *282:308 *2239:A 0
*RES
1 *2199:Q *2239:A 31.4214 
*END

*D_NET *344 0.0024045
*CONN
*I *2247:A I *D sky130_fd_sc_hd__dlygate4sd3_1
*I *2055:A I *D sky130_fd_sc_hd__nand2_1
*I *2200:Q O *D sky130_fd_sc_hd__dfrtp_1
*CAP
1 *2247:A 0.000501191
2 *2055:A 0.000452879
3 *2200:Q 0
4 *344:6 0.00095407
5 *2042:A *2247:A 6.39901e-05
6 *2129:B1 *2247:A 0.000174512
7 *4:34 *2055:A 0
8 *4:34 *2247:A 0
9 *125:14 *2247:A 0.000236717
10 *279:41 *2247:A 2.11419e-05
11 *280:16 *2055:A 0
12 *280:16 *2247:A 0
*RES
1 *2200:Q *344:6 13.8 
2 *344:6 *2055:A 21.2821 
3 *344:6 *2247:A 24.2464 
*END

*D_NET *345 0.0028992
*CONN
*I *2236:A I *D sky130_fd_sc_hd__dlygate4sd3_1
*I *2054:A I *D sky130_fd_sc_hd__and2_0
*I *2201:Q O *D sky130_fd_sc_hd__dfrtp_1
*CAP
1 *2236:A 9.6658e-05
2 *2054:A 0.000554439
3 *2201:Q 0.000651097
4 *2050:A *2236:A 0.000142856
5 *2050:B *2236:A 3.18676e-05
6 *2054:B *2054:A 0.000151183
7 *2161:B1 *2054:A 0
8 *2201:CLK *2054:A 3.81416e-06
9 *2201:CLK *2236:A 8.0023e-05
10 *2237:A *2236:A 0.00010096
11 *2318:A *2054:A 4.60805e-05
12 *207:8 *2236:A 9.47712e-05
13 *207:10 *2054:A 0
14 *282:247 *2054:A 0.00094545
*RES
1 *2201:Q *2054:A 42.225 
2 *2201:Q *2236:A 22.4214 
*END
