*SPEF "ieee 1481-1999"
*DESIGN "sar_controller"
*DATE "04:38:02 Tuesday September 08, 2026"
*VENDOR "The OpenROAD Project"
*PROGRAM "OpenROAD"
*VERSION "26Q1-1024-gdcf36133a"
*DESIGN_FLOW "NAME_SCOPE LOCAL" "PIN_CAP NONE"
*DIVIDER /
*DELIMITER :
*BUS_DELIMITER []
*T_UNIT 1 NS
*C_UNIT 1 PF
*R_UNIT 1 OHM
*L_UNIT 1 HENRY

*NAME_MAP
*3 busy
*4 clk
*5 comparator_bit
*6 comparator_evaluate
*7 data[0]
*8 data[10]
*9 data[11]
*10 data[1]
*11 data[2]
*12 data[3]
*13 data[4]
*14 data[5]
*15 data[6]
*16 data[7]
*17 data[8]
*18 data[9]
*19 data_gain[0]
*20 data_gain[1]
*21 data_valid
*22 gain_latched[0]
*23 gain_latched[1]
*24 gain_sel[0]
*25 gain_sel[1]
*26 ready
*27 rst_n
*28 sample_en
*29 start
*30 trial_code[0]
*31 trial_code[10]
*32 trial_code[11]
*33 trial_code[1]
*34 trial_code[2]
*35 trial_code[3]
*36 trial_code[4]
*37 trial_code[5]
*38 trial_code[6]
*39 trial_code[7]
*40 trial_code[8]
*41 trial_code[9]
*42 _000_
*43 _001_
*44 _002_
*45 _003_
*46 _004_
*47 _005_
*48 _006_
*49 _007_
*50 _008_
*51 _009_
*52 _010_
*53 _011_
*54 _012_
*55 _013_
*56 _014_
*57 _015_
*58 _016_
*59 _017_
*60 _018_
*61 _019_
*62 _020_
*63 _021_
*64 _022_
*65 _023_
*66 _024_
*67 _025_
*68 _026_
*69 _027_
*70 _028_
*71 _029_
*72 _030_
*73 _031_
*74 _032_
*75 _033_
*76 _034_
*77 _035_
*78 _036_
*79 _037_
*80 _038_
*81 _039_
*82 _040_
*83 _041_
*84 _042_
*85 _043_
*86 _044_
*87 _045_
*88 _046_
*89 _047_
*90 _048_
*91 _049_
*92 _050_
*93 _051_
*94 _052_
*95 _053_
*96 _054_
*97 _055_
*98 _056_
*99 _057_
*100 _058_
*101 _059_
*102 _060_
*103 _061_
*104 _062_
*105 _063_
*106 _064_
*107 _065_
*108 _066_
*109 _067_
*110 _068_
*111 _069_
*112 _070_
*113 _071_
*114 _072_
*115 _073_
*116 _074_
*117 _075_
*118 _076_
*119 _077_
*120 _078_
*121 _079_
*122 _080_
*123 _081_
*124 _082_
*125 _083_
*126 _084_
*127 _085_
*128 _086_
*129 _087_
*130 _088_
*131 _089_
*132 _090_
*133 _091_
*134 _092_
*135 _093_
*136 _094_
*137 _095_
*138 _096_
*139 _097_
*140 _098_
*141 _099_
*142 _100_
*143 _101_
*144 _102_
*145 _103_
*146 _104_
*147 _105_
*148 _106_
*149 _107_
*150 _108_
*151 _109_
*152 _110_
*153 _111_
*154 _112_
*155 _113_
*156 _114_
*157 _115_
*158 _116_
*159 _117_
*160 _118_
*161 _119_
*162 _120_
*163 _121_
*164 _122_
*165 _123_
*166 acquisition_left\[0\]
*167 acquisition_left\[1\]
*168 acquisition_left\[2\]
*169 bit_index\[0\]
*170 bit_index\[1\]
*171 bit_index\[2\]
*172 bit_index\[3\]
*173 clk_regs
*174 clknet_0_clk
*175 clknet_0_clk_regs
*176 clknet_1_0__leaf_clk
*177 clknet_2_0__leaf_clk_regs
*178 clknet_2_1__leaf_clk_regs
*179 clknet_2_2__leaf_clk_regs
*180 clknet_2_3__leaf_clk_regs
*181 net1
*182 net10
*183 net100
*184 net101
*185 net102
*186 net103
*187 net104
*188 net105
*189 net106
*190 net107
*191 net108
*192 net109
*193 net11
*194 net110
*195 net111
*196 net112
*197 net113
*198 net114
*199 net115
*200 net116
*201 net117
*202 net118
*203 net119
*204 net12
*205 net120
*206 net121
*207 net122
*208 net123
*209 net124
*210 net125
*211 net126
*212 net127
*213 net128
*214 net129
*215 net13
*216 net130
*217 net131
*218 net132
*219 net133
*220 net134
*221 net135
*222 net136
*223 net137
*224 net138
*225 net139
*226 net14
*227 net140
*228 net141
*229 net142
*230 net143
*231 net144
*232 net145
*233 net146
*234 net147
*235 net148
*236 net149
*237 net15
*238 net150
*239 net151
*240 net152
*241 net153
*242 net154
*243 net155
*244 net156
*245 net157
*246 net158
*247 net159
*248 net16
*249 net160
*250 net161
*251 net162
*252 net17
*253 net18
*254 net19
*255 net2
*256 net20
*257 net21
*258 net22
*259 net23
*260 net24
*261 net25
*262 net26
*263 net27
*264 net28
*265 net29
*266 net3
*267 net30
*268 net31
*269 net32
*270 net33
*271 net34
*272 net35
*273 net36
*274 net37
*275 net38
*276 net39
*277 net4
*278 net40
*279 net41
*280 net42
*281 net43
*282 net44
*283 net45
*284 net46
*285 net47
*286 net48
*287 net49
*288 net5
*289 net50
*290 net51
*291 net52
*292 net53
*293 net54
*294 net55
*295 net56
*296 net57
*297 net58
*298 net59
*299 net6
*300 net60
*301 net61
*302 net62
*303 net63
*304 net64
*305 net65
*306 net66
*307 net67
*308 net68
*309 net69
*310 net7
*311 net70
*312 net71
*313 net72
*314 net73
*315 net74
*316 net75
*317 net76
*318 net77
*319 net78
*320 net79
*321 net8
*322 net80
*323 net81
*324 net82
*325 net83
*326 net84
*327 net85
*328 net86
*329 net87
*330 net88
*331 net89
*332 net9
*333 net90
*334 net91
*335 net92
*336 net93
*337 net94
*338 net95
*339 net96
*340 net97
*341 net98
*342 net99
*343 state\[0\]
*344 state\[1\]
*345 state\[2\]
*346 FILLER_0_109
*347 FILLER_0_113
*348 FILLER_0_125
*349 FILLER_0_137
*350 FILLER_0_141
*351 FILLER_0_15
*352 FILLER_0_153
*353 FILLER_0_161
*354 FILLER_0_167
*355 FILLER_0_169
*356 FILLER_0_191
*357 FILLER_0_195
*358 FILLER_0_197
*359 FILLER_0_209
*360 FILLER_0_221
*361 FILLER_0_225
*362 FILLER_0_237
*363 FILLER_0_249
*364 FILLER_0_253
*365 FILLER_0_265
*366 FILLER_0_27
*367 FILLER_0_277
*368 FILLER_0_281
*369 FILLER_0_29
*370 FILLER_0_293
*371 FILLER_0_3
*372 FILLER_0_41
*373 FILLER_0_53
*374 FILLER_0_57
*375 FILLER_0_69
*376 FILLER_0_81
*377 FILLER_0_85
*378 FILLER_0_97
*379 FILLER_10_109
*380 FILLER_10_121
*381 FILLER_10_131
*382 FILLER_10_141
*383 FILLER_10_15
*384 FILLER_10_153
*385 FILLER_10_161
*386 FILLER_10_190
*387 FILLER_10_197
*388 FILLER_10_209
*389 FILLER_10_221
*390 FILLER_10_233
*391 FILLER_10_245
*392 FILLER_10_251
*393 FILLER_10_253
*394 FILLER_10_265
*395 FILLER_10_27
*396 FILLER_10_277
*397 FILLER_10_289
*398 FILLER_10_29
*399 FILLER_10_297
*400 FILLER_10_3
*401 FILLER_10_41
*402 FILLER_10_53
*403 FILLER_10_65
*404 FILLER_10_77
*405 FILLER_10_83
*406 FILLER_10_85
*407 FILLER_10_97
*408 FILLER_11_105
*409 FILLER_11_111
*410 FILLER_11_113
*411 FILLER_11_119
*412 FILLER_11_15
*413 FILLER_11_151
*414 FILLER_11_163
*415 FILLER_11_167
*416 FILLER_11_189
*417 FILLER_11_206
*418 FILLER_11_218
*419 FILLER_11_225
*420 FILLER_11_237
*421 FILLER_11_249
*422 FILLER_11_261
*423 FILLER_11_27
*424 FILLER_11_273
*425 FILLER_11_279
*426 FILLER_11_281
*427 FILLER_11_293
*428 FILLER_11_3
*429 FILLER_11_39
*430 FILLER_11_51
*431 FILLER_11_55
*432 FILLER_11_57
*433 FILLER_11_69
*434 FILLER_11_81
*435 FILLER_11_93
*436 FILLER_12_123
*437 FILLER_12_141
*438 FILLER_12_15
*439 FILLER_12_153
*440 FILLER_12_165
*441 FILLER_12_193
*442 FILLER_12_197
*443 FILLER_12_210
*444 FILLER_12_220
*445 FILLER_12_232
*446 FILLER_12_244
*447 FILLER_12_253
*448 FILLER_12_265
*449 FILLER_12_27
*450 FILLER_12_277
*451 FILLER_12_289
*452 FILLER_12_29
*453 FILLER_12_297
*454 FILLER_12_3
*455 FILLER_12_41
*456 FILLER_12_53
*457 FILLER_12_65
*458 FILLER_12_77
*459 FILLER_12_83
*460 FILLER_12_85
*461 FILLER_12_97
*462 FILLER_13_105
*463 FILLER_13_111
*464 FILLER_13_15
*465 FILLER_13_155
*466 FILLER_13_160
*467 FILLER_13_169
*468 FILLER_13_192
*469 FILLER_13_198
*470 FILLER_13_219
*471 FILLER_13_223
*472 FILLER_13_225
*473 FILLER_13_237
*474 FILLER_13_249
*475 FILLER_13_261
*476 FILLER_13_27
*477 FILLER_13_273
*478 FILLER_13_279
*479 FILLER_13_281
*480 FILLER_13_293
*481 FILLER_13_3
*482 FILLER_13_39
*483 FILLER_13_51
*484 FILLER_13_55
*485 FILLER_13_57
*486 FILLER_13_69
*487 FILLER_13_81
*488 FILLER_13_93
*489 FILLER_14_105
*490 FILLER_14_130
*491 FILLER_14_149
*492 FILLER_14_15
*493 FILLER_14_157
*494 FILLER_14_179
*495 FILLER_14_185
*496 FILLER_14_194
*497 FILLER_14_197
*498 FILLER_14_201
*499 FILLER_14_210
*500 FILLER_14_224
*501 FILLER_14_236
*502 FILLER_14_248
*503 FILLER_14_253
*504 FILLER_14_265
*505 FILLER_14_27
*506 FILLER_14_277
*507 FILLER_14_289
*508 FILLER_14_29
*509 FILLER_14_297
*510 FILLER_14_3
*511 FILLER_14_41
*512 FILLER_14_53
*513 FILLER_14_65
*514 FILLER_14_77
*515 FILLER_14_83
*516 FILLER_14_85
*517 FILLER_14_97
*518 FILLER_15_105
*519 FILLER_15_111
*520 FILLER_15_113
*521 FILLER_15_125
*522 FILLER_15_139
*523 FILLER_15_15
*524 FILLER_15_155
*525 FILLER_15_159
*526 FILLER_15_167
*527 FILLER_15_169
*528 FILLER_15_181
*529 FILLER_15_193
*530 FILLER_15_201
*531 FILLER_15_210
*532 FILLER_15_222
*533 FILLER_15_225
*534 FILLER_15_237
*535 FILLER_15_249
*536 FILLER_15_261
*537 FILLER_15_27
*538 FILLER_15_273
*539 FILLER_15_279
*540 FILLER_15_281
*541 FILLER_15_293
*542 FILLER_15_3
*543 FILLER_15_39
*544 FILLER_15_51
*545 FILLER_15_55
*546 FILLER_15_57
*547 FILLER_15_69
*548 FILLER_15_81
*549 FILLER_15_93
*550 FILLER_16_109
*551 FILLER_16_121
*552 FILLER_16_138
*553 FILLER_16_141
*554 FILLER_16_15
*555 FILLER_16_165
*556 FILLER_16_177
*557 FILLER_16_189
*558 FILLER_16_195
*559 FILLER_16_197
*560 FILLER_16_209
*561 FILLER_16_233
*562 FILLER_16_245
*563 FILLER_16_251
*564 FILLER_16_253
*565 FILLER_16_265
*566 FILLER_16_27
*567 FILLER_16_277
*568 FILLER_16_289
*569 FILLER_16_29
*570 FILLER_16_297
*571 FILLER_16_3
*572 FILLER_16_41
*573 FILLER_16_53
*574 FILLER_16_65
*575 FILLER_16_77
*576 FILLER_16_83
*577 FILLER_16_85
*578 FILLER_16_97
*579 FILLER_17_113
*580 FILLER_17_15
*581 FILLER_17_167
*582 FILLER_17_169
*583 FILLER_17_175
*584 FILLER_17_187
*585 FILLER_17_199
*586 FILLER_17_211
*587 FILLER_17_223
*588 FILLER_17_225
*589 FILLER_17_237
*590 FILLER_17_249
*591 FILLER_17_261
*592 FILLER_17_27
*593 FILLER_17_273
*594 FILLER_17_279
*595 FILLER_17_281
*596 FILLER_17_293
*597 FILLER_17_3
*598 FILLER_17_39
*599 FILLER_17_51
*600 FILLER_17_55
*601 FILLER_17_57
*602 FILLER_17_69
*603 FILLER_17_81
*604 FILLER_17_89
*605 FILLER_18_11
*606 FILLER_18_15
*607 FILLER_18_161
*608 FILLER_18_173
*609 FILLER_18_197
*610 FILLER_18_216
*611 FILLER_18_227
*612 FILLER_18_239
*613 FILLER_18_251
*614 FILLER_18_253
*615 FILLER_18_265
*616 FILLER_18_27
*617 FILLER_18_277
*618 FILLER_18_289
*619 FILLER_18_29
*620 FILLER_18_297
*621 FILLER_18_41
*622 FILLER_18_53
*623 FILLER_18_65
*624 FILLER_18_77
*625 FILLER_18_83
*626 FILLER_18_85
*627 FILLER_18_93
*628 FILLER_19_113
*629 FILLER_19_118
*630 FILLER_19_15
*631 FILLER_19_169
*632 FILLER_19_185
*633 FILLER_19_197
*634 FILLER_19_225
*635 FILLER_19_237
*636 FILLER_19_249
*637 FILLER_19_261
*638 FILLER_19_27
*639 FILLER_19_273
*640 FILLER_19_279
*641 FILLER_19_281
*642 FILLER_19_293
*643 FILLER_19_3
*644 FILLER_19_39
*645 FILLER_19_51
*646 FILLER_19_55
*647 FILLER_19_57
*648 FILLER_19_69
*649 FILLER_19_81
*650 FILLER_19_93
*651 FILLER_19_99
*652 FILLER_1_105
*653 FILLER_1_111
*654 FILLER_1_113
*655 FILLER_1_125
*656 FILLER_1_137
*657 FILLER_1_149
*658 FILLER_1_15
*659 FILLER_1_161
*660 FILLER_1_167
*661 FILLER_1_175
*662 FILLER_1_185
*663 FILLER_1_197
*664 FILLER_1_209
*665 FILLER_1_221
*666 FILLER_1_225
*667 FILLER_1_237
*668 FILLER_1_249
*669 FILLER_1_261
*670 FILLER_1_27
*671 FILLER_1_273
*672 FILLER_1_279
*673 FILLER_1_281
*674 FILLER_1_293
*675 FILLER_1_3
*676 FILLER_1_39
*677 FILLER_1_51
*678 FILLER_1_55
*679 FILLER_1_57
*680 FILLER_1_69
*681 FILLER_1_81
*682 FILLER_1_93
*683 FILLER_20_103
*684 FILLER_20_110
*685 FILLER_20_132
*686 FILLER_20_141
*687 FILLER_20_15
*688 FILLER_20_157
*689 FILLER_20_161
*690 FILLER_20_168
*691 FILLER_20_175
*692 FILLER_20_200
*693 FILLER_20_216
*694 FILLER_20_228
*695 FILLER_20_240
*696 FILLER_20_253
*697 FILLER_20_265
*698 FILLER_20_27
*699 FILLER_20_277
*700 FILLER_20_289
*701 FILLER_20_29
*702 FILLER_20_3
*703 FILLER_20_41
*704 FILLER_20_53
*705 FILLER_20_65
*706 FILLER_20_77
*707 FILLER_20_83
*708 FILLER_20_85
*709 FILLER_20_97
*710 FILLER_21_105
*711 FILLER_21_111
*712 FILLER_21_113
*713 FILLER_21_126
*714 FILLER_21_132
*715 FILLER_21_137
*716 FILLER_21_15
*717 FILLER_21_155
*718 FILLER_21_167
*719 FILLER_21_169
*720 FILLER_21_187
*721 FILLER_21_205
*722 FILLER_21_213
*723 FILLER_21_219
*724 FILLER_21_223
*725 FILLER_21_225
*726 FILLER_21_237
*727 FILLER_21_249
*728 FILLER_21_261
*729 FILLER_21_27
*730 FILLER_21_273
*731 FILLER_21_279
*732 FILLER_21_281
*733 FILLER_21_293
*734 FILLER_21_3
*735 FILLER_21_39
*736 FILLER_21_51
*737 FILLER_21_55
*738 FILLER_21_57
*739 FILLER_21_69
*740 FILLER_21_81
*741 FILLER_21_93
*742 FILLER_22_137
*743 FILLER_22_141
*744 FILLER_22_15
*745 FILLER_22_192
*746 FILLER_22_197
*747 FILLER_22_205
*748 FILLER_22_236
*749 FILLER_22_248
*750 FILLER_22_253
*751 FILLER_22_265
*752 FILLER_22_27
*753 FILLER_22_277
*754 FILLER_22_289
*755 FILLER_22_29
*756 FILLER_22_3
*757 FILLER_22_41
*758 FILLER_22_53
*759 FILLER_22_65
*760 FILLER_22_77
*761 FILLER_22_83
*762 FILLER_22_85
*763 FILLER_22_97
*764 FILLER_23_121
*765 FILLER_23_133
*766 FILLER_23_139
*767 FILLER_23_15
*768 FILLER_23_165
*769 FILLER_23_181
*770 FILLER_23_189
*771 FILLER_23_219
*772 FILLER_23_223
*773 FILLER_23_233
*774 FILLER_23_245
*775 FILLER_23_257
*776 FILLER_23_269
*777 FILLER_23_27
*778 FILLER_23_277
*779 FILLER_23_281
*780 FILLER_23_293
*781 FILLER_23_3
*782 FILLER_23_39
*783 FILLER_23_51
*784 FILLER_23_55
*785 FILLER_23_57
*786 FILLER_23_69
*787 FILLER_23_81
*788 FILLER_23_89
*789 FILLER_24_106
*790 FILLER_24_11
*791 FILLER_24_112
*792 FILLER_24_117
*793 FILLER_24_129
*794 FILLER_24_141
*795 FILLER_24_147
*796 FILLER_24_152
*797 FILLER_24_175
*798 FILLER_24_194
*799 FILLER_24_197
*800 FILLER_24_225
*801 FILLER_24_23
*802 FILLER_24_237
*803 FILLER_24_249
*804 FILLER_24_253
*805 FILLER_24_265
*806 FILLER_24_27
*807 FILLER_24_277
*808 FILLER_24_289
*809 FILLER_24_29
*810 FILLER_24_297
*811 FILLER_24_41
*812 FILLER_24_53
*813 FILLER_24_65
*814 FILLER_24_77
*815 FILLER_24_83
*816 FILLER_24_85
*817 FILLER_25_108
*818 FILLER_25_117
*819 FILLER_25_125
*820 FILLER_25_15
*821 FILLER_25_154
*822 FILLER_25_163
*823 FILLER_25_167
*824 FILLER_25_169
*825 FILLER_25_181
*826 FILLER_25_193
*827 FILLER_25_205
*828 FILLER_25_222
*829 FILLER_25_225
*830 FILLER_25_237
*831 FILLER_25_249
*832 FILLER_25_261
*833 FILLER_25_27
*834 FILLER_25_273
*835 FILLER_25_279
*836 FILLER_25_281
*837 FILLER_25_293
*838 FILLER_25_3
*839 FILLER_25_39
*840 FILLER_25_51
*841 FILLER_25_55
*842 FILLER_25_57
*843 FILLER_25_69
*844 FILLER_25_81
*845 FILLER_25_87
*846 FILLER_25_99
*847 FILLER_26_112
*848 FILLER_26_120
*849 FILLER_26_126
*850 FILLER_26_132
*851 FILLER_26_141
*852 FILLER_26_15
*853 FILLER_26_172
*854 FILLER_26_185
*855 FILLER_26_190
*856 FILLER_26_197
*857 FILLER_26_207
*858 FILLER_26_239
*859 FILLER_26_251
*860 FILLER_26_253
*861 FILLER_26_265
*862 FILLER_26_27
*863 FILLER_26_277
*864 FILLER_26_289
*865 FILLER_26_29
*866 FILLER_26_3
*867 FILLER_26_41
*868 FILLER_26_53
*869 FILLER_26_65
*870 FILLER_26_77
*871 FILLER_26_83
*872 FILLER_26_85
*873 FILLER_27_113
*874 FILLER_27_125
*875 FILLER_27_131
*876 FILLER_27_15
*877 FILLER_27_159
*878 FILLER_27_167
*879 FILLER_27_177
*880 FILLER_27_183
*881 FILLER_27_221
*882 FILLER_27_233
*883 FILLER_27_245
*884 FILLER_27_257
*885 FILLER_27_269
*886 FILLER_27_27
*887 FILLER_27_277
*888 FILLER_27_281
*889 FILLER_27_293
*890 FILLER_27_3
*891 FILLER_27_39
*892 FILLER_27_51
*893 FILLER_27_55
*894 FILLER_27_57
*895 FILLER_27_69
*896 FILLER_27_81
*897 FILLER_28_11
*898 FILLER_28_125
*899 FILLER_28_137
*900 FILLER_28_141
*901 FILLER_28_173
*902 FILLER_28_185
*903 FILLER_28_193
*904 FILLER_28_197
*905 FILLER_28_229
*906 FILLER_28_23
*907 FILLER_28_241
*908 FILLER_28_249
*909 FILLER_28_253
*910 FILLER_28_265
*911 FILLER_28_27
*912 FILLER_28_277
*913 FILLER_28_289
*914 FILLER_28_29
*915 FILLER_28_297
*916 FILLER_28_41
*917 FILLER_28_53
*918 FILLER_28_65
*919 FILLER_28_77
*920 FILLER_29_111
*921 FILLER_29_117
*922 FILLER_29_140
*923 FILLER_29_15
*924 FILLER_29_152
*925 FILLER_29_164
*926 FILLER_29_169
*927 FILLER_29_181
*928 FILLER_29_191
*929 FILLER_29_199
*930 FILLER_29_213
*931 FILLER_29_223
*932 FILLER_29_236
*933 FILLER_29_248
*934 FILLER_29_260
*935 FILLER_29_27
*936 FILLER_29_272
*937 FILLER_29_281
*938 FILLER_29_293
*939 FILLER_29_3
*940 FILLER_29_39
*941 FILLER_29_51
*942 FILLER_29_55
*943 FILLER_29_57
*944 FILLER_29_69
*945 FILLER_29_81
*946 FILLER_2_109
*947 FILLER_2_121
*948 FILLER_2_133
*949 FILLER_2_139
*950 FILLER_2_141
*951 FILLER_2_15
*952 FILLER_2_153
*953 FILLER_2_165
*954 FILLER_2_177
*955 FILLER_2_189
*956 FILLER_2_195
*957 FILLER_2_197
*958 FILLER_2_209
*959 FILLER_2_221
*960 FILLER_2_233
*961 FILLER_2_245
*962 FILLER_2_251
*963 FILLER_2_253
*964 FILLER_2_265
*965 FILLER_2_27
*966 FILLER_2_277
*967 FILLER_2_289
*968 FILLER_2_29
*969 FILLER_2_297
*970 FILLER_2_3
*971 FILLER_2_41
*972 FILLER_2_53
*973 FILLER_2_65
*974 FILLER_2_77
*975 FILLER_2_83
*976 FILLER_2_85
*977 FILLER_2_97
*978 FILLER_30_113
*979 FILLER_30_119
*980 FILLER_30_132
*981 FILLER_30_141
*982 FILLER_30_15
*983 FILLER_30_153
*984 FILLER_30_165
*985 FILLER_30_174
*986 FILLER_30_181
*987 FILLER_30_237
*988 FILLER_30_249
*989 FILLER_30_253
*990 FILLER_30_265
*991 FILLER_30_27
*992 FILLER_30_277
*993 FILLER_30_289
*994 FILLER_30_29
*995 FILLER_30_3
*996 FILLER_30_41
*997 FILLER_30_53
*998 FILLER_30_65
*999 FILLER_30_77
*1000 FILLER_30_83
*1001 FILLER_30_85
*1002 FILLER_30_97
*1003 FILLER_31_108
*1004 FILLER_31_113
*1005 FILLER_31_119
*1006 FILLER_31_152
*1007 FILLER_31_164
*1008 FILLER_31_169
*1009 FILLER_31_19
*1010 FILLER_31_191
*1011 FILLER_31_197
*1012 FILLER_31_206
*1013 FILLER_31_210
*1014 FILLER_31_219
*1015 FILLER_31_223
*1016 FILLER_31_225
*1017 FILLER_31_237
*1018 FILLER_31_249
*1019 FILLER_31_261
*1020 FILLER_31_273
*1021 FILLER_31_279
*1022 FILLER_31_281
*1023 FILLER_31_293
*1024 FILLER_31_31
*1025 FILLER_31_43
*1026 FILLER_31_55
*1027 FILLER_31_57
*1028 FILLER_31_69
*1029 FILLER_31_7
*1030 FILLER_31_81
*1031 FILLER_31_87
*1032 FILLER_32_108
*1033 FILLER_32_149
*1034 FILLER_32_15
*1035 FILLER_32_161
*1036 FILLER_32_167
*1037 FILLER_32_179
*1038 FILLER_32_191
*1039 FILLER_32_195
*1040 FILLER_32_197
*1041 FILLER_32_209
*1042 FILLER_32_215
*1043 FILLER_32_224
*1044 FILLER_32_236
*1045 FILLER_32_248
*1046 FILLER_32_253
*1047 FILLER_32_265
*1048 FILLER_32_27
*1049 FILLER_32_277
*1050 FILLER_32_289
*1051 FILLER_32_29
*1052 FILLER_32_297
*1053 FILLER_32_3
*1054 FILLER_32_41
*1055 FILLER_32_53
*1056 FILLER_32_65
*1057 FILLER_32_77
*1058 FILLER_32_83
*1059 FILLER_32_85
*1060 FILLER_32_91
*1061 FILLER_33_101
*1062 FILLER_33_109
*1063 FILLER_33_113
*1064 FILLER_33_125
*1065 FILLER_33_133
*1066 FILLER_33_142
*1067 FILLER_33_146
*1068 FILLER_33_15
*1069 FILLER_33_169
*1070 FILLER_33_178
*1071 FILLER_33_190
*1072 FILLER_33_196
*1073 FILLER_33_200
*1074 FILLER_33_205
*1075 FILLER_33_209
*1076 FILLER_33_221
*1077 FILLER_33_225
*1078 FILLER_33_237
*1079 FILLER_33_249
*1080 FILLER_33_261
*1081 FILLER_33_27
*1082 FILLER_33_273
*1083 FILLER_33_279
*1084 FILLER_33_281
*1085 FILLER_33_293
*1086 FILLER_33_3
*1087 FILLER_33_39
*1088 FILLER_33_51
*1089 FILLER_33_55
*1090 FILLER_33_57
*1091 FILLER_33_69
*1092 FILLER_33_81
*1093 FILLER_33_93
*1094 FILLER_33_97
*1095 FILLER_34_121
*1096 FILLER_34_134
*1097 FILLER_34_139
*1098 FILLER_34_141
*1099 FILLER_34_15
*1100 FILLER_34_153
*1101 FILLER_34_233
*1102 FILLER_34_245
*1103 FILLER_34_251
*1104 FILLER_34_253
*1105 FILLER_34_265
*1106 FILLER_34_27
*1107 FILLER_34_277
*1108 FILLER_34_289
*1109 FILLER_34_29
*1110 FILLER_34_3
*1111 FILLER_34_41
*1112 FILLER_34_53
*1113 FILLER_34_65
*1114 FILLER_34_77
*1115 FILLER_34_83
*1116 FILLER_34_85
*1117 FILLER_34_97
*1118 FILLER_35_133
*1119 FILLER_35_143
*1120 FILLER_35_15
*1121 FILLER_35_155
*1122 FILLER_35_167
*1123 FILLER_35_169
*1124 FILLER_35_192
*1125 FILLER_35_222
*1126 FILLER_35_225
*1127 FILLER_35_237
*1128 FILLER_35_249
*1129 FILLER_35_261
*1130 FILLER_35_27
*1131 FILLER_35_273
*1132 FILLER_35_279
*1133 FILLER_35_281
*1134 FILLER_35_293
*1135 FILLER_35_3
*1136 FILLER_35_39
*1137 FILLER_35_51
*1138 FILLER_35_55
*1139 FILLER_35_57
*1140 FILLER_35_69
*1141 FILLER_35_81
*1142 FILLER_35_93
*1143 FILLER_36_110
*1144 FILLER_36_149
*1145 FILLER_36_15
*1146 FILLER_36_153
*1147 FILLER_36_158
*1148 FILLER_36_170
*1149 FILLER_36_194
*1150 FILLER_36_213
*1151 FILLER_36_217
*1152 FILLER_36_234
*1153 FILLER_36_246
*1154 FILLER_36_253
*1155 FILLER_36_265
*1156 FILLER_36_27
*1157 FILLER_36_277
*1158 FILLER_36_289
*1159 FILLER_36_29
*1160 FILLER_36_297
*1161 FILLER_36_3
*1162 FILLER_36_41
*1163 FILLER_36_53
*1164 FILLER_36_65
*1165 FILLER_36_77
*1166 FILLER_36_83
*1167 FILLER_36_85
*1168 FILLER_36_97
*1169 FILLER_37_111
*1170 FILLER_37_116
*1171 FILLER_37_122
*1172 FILLER_37_135
*1173 FILLER_37_147
*1174 FILLER_37_15
*1175 FILLER_37_151
*1176 FILLER_37_160
*1177 FILLER_37_169
*1178 FILLER_37_184
*1179 FILLER_37_195
*1180 FILLER_37_207
*1181 FILLER_37_217
*1182 FILLER_37_223
*1183 FILLER_37_225
*1184 FILLER_37_237
*1185 FILLER_37_249
*1186 FILLER_37_261
*1187 FILLER_37_27
*1188 FILLER_37_273
*1189 FILLER_37_279
*1190 FILLER_37_281
*1191 FILLER_37_293
*1192 FILLER_37_3
*1193 FILLER_37_39
*1194 FILLER_37_51
*1195 FILLER_37_55
*1196 FILLER_37_57
*1197 FILLER_37_69
*1198 FILLER_37_81
*1199 FILLER_37_89
*1200 FILLER_38_113
*1201 FILLER_38_119
*1202 FILLER_38_141
*1203 FILLER_38_145
*1204 FILLER_38_15
*1205 FILLER_38_166
*1206 FILLER_38_190
*1207 FILLER_38_197
*1208 FILLER_38_209
*1209 FILLER_38_221
*1210 FILLER_38_233
*1211 FILLER_38_245
*1212 FILLER_38_251
*1213 FILLER_38_253
*1214 FILLER_38_265
*1215 FILLER_38_27
*1216 FILLER_38_277
*1217 FILLER_38_289
*1218 FILLER_38_29
*1219 FILLER_38_297
*1220 FILLER_38_3
*1221 FILLER_38_41
*1222 FILLER_38_53
*1223 FILLER_38_65
*1224 FILLER_38_77
*1225 FILLER_38_83
*1226 FILLER_38_85
*1227 FILLER_39_104
*1228 FILLER_39_113
*1229 FILLER_39_125
*1230 FILLER_39_144
*1231 FILLER_39_15
*1232 FILLER_39_169
*1233 FILLER_39_196
*1234 FILLER_39_208
*1235 FILLER_39_220
*1236 FILLER_39_225
*1237 FILLER_39_237
*1238 FILLER_39_249
*1239 FILLER_39_261
*1240 FILLER_39_27
*1241 FILLER_39_273
*1242 FILLER_39_279
*1243 FILLER_39_281
*1244 FILLER_39_293
*1245 FILLER_39_3
*1246 FILLER_39_39
*1247 FILLER_39_51
*1248 FILLER_39_55
*1249 FILLER_39_57
*1250 FILLER_39_69
*1251 FILLER_39_81
*1252 FILLER_39_93
*1253 FILLER_3_105
*1254 FILLER_3_111
*1255 FILLER_3_113
*1256 FILLER_3_125
*1257 FILLER_3_137
*1258 FILLER_3_149
*1259 FILLER_3_15
*1260 FILLER_3_161
*1261 FILLER_3_167
*1262 FILLER_3_169
*1263 FILLER_3_181
*1264 FILLER_3_193
*1265 FILLER_3_205
*1266 FILLER_3_217
*1267 FILLER_3_223
*1268 FILLER_3_225
*1269 FILLER_3_237
*1270 FILLER_3_249
*1271 FILLER_3_261
*1272 FILLER_3_27
*1273 FILLER_3_273
*1274 FILLER_3_279
*1275 FILLER_3_281
*1276 FILLER_3_293
*1277 FILLER_3_3
*1278 FILLER_3_39
*1279 FILLER_3_51
*1280 FILLER_3_55
*1281 FILLER_3_57
*1282 FILLER_3_69
*1283 FILLER_3_81
*1284 FILLER_3_93
*1285 FILLER_40_109
*1286 FILLER_40_121
*1287 FILLER_40_129
*1288 FILLER_40_134
*1289 FILLER_40_141
*1290 FILLER_40_15
*1291 FILLER_40_153
*1292 FILLER_40_159
*1293 FILLER_40_171
*1294 FILLER_40_183
*1295 FILLER_40_195
*1296 FILLER_40_197
*1297 FILLER_40_209
*1298 FILLER_40_221
*1299 FILLER_40_233
*1300 FILLER_40_245
*1301 FILLER_40_251
*1302 FILLER_40_253
*1303 FILLER_40_265
*1304 FILLER_40_27
*1305 FILLER_40_277
*1306 FILLER_40_289
*1307 FILLER_40_29
*1308 FILLER_40_297
*1309 FILLER_40_3
*1310 FILLER_40_41
*1311 FILLER_40_53
*1312 FILLER_40_65
*1313 FILLER_40_77
*1314 FILLER_40_83
*1315 FILLER_40_85
*1316 FILLER_40_97
*1317 FILLER_41_105
*1318 FILLER_41_111
*1319 FILLER_41_113
*1320 FILLER_41_125
*1321 FILLER_41_137
*1322 FILLER_41_149
*1323 FILLER_41_15
*1324 FILLER_41_161
*1325 FILLER_41_167
*1326 FILLER_41_169
*1327 FILLER_41_181
*1328 FILLER_41_193
*1329 FILLER_41_205
*1330 FILLER_41_217
*1331 FILLER_41_223
*1332 FILLER_41_225
*1333 FILLER_41_237
*1334 FILLER_41_249
*1335 FILLER_41_261
*1336 FILLER_41_27
*1337 FILLER_41_273
*1338 FILLER_41_279
*1339 FILLER_41_281
*1340 FILLER_41_293
*1341 FILLER_41_3
*1342 FILLER_41_39
*1343 FILLER_41_51
*1344 FILLER_41_55
*1345 FILLER_41_57
*1346 FILLER_41_69
*1347 FILLER_41_81
*1348 FILLER_41_93
*1349 FILLER_42_109
*1350 FILLER_42_121
*1351 FILLER_42_133
*1352 FILLER_42_139
*1353 FILLER_42_141
*1354 FILLER_42_15
*1355 FILLER_42_153
*1356 FILLER_42_165
*1357 FILLER_42_177
*1358 FILLER_42_189
*1359 FILLER_42_195
*1360 FILLER_42_197
*1361 FILLER_42_209
*1362 FILLER_42_221
*1363 FILLER_42_233
*1364 FILLER_42_245
*1365 FILLER_42_251
*1366 FILLER_42_253
*1367 FILLER_42_265
*1368 FILLER_42_27
*1369 FILLER_42_277
*1370 FILLER_42_289
*1371 FILLER_42_29
*1372 FILLER_42_297
*1373 FILLER_42_3
*1374 FILLER_42_41
*1375 FILLER_42_53
*1376 FILLER_42_65
*1377 FILLER_42_77
*1378 FILLER_42_83
*1379 FILLER_42_85
*1380 FILLER_42_97
*1381 FILLER_43_105
*1382 FILLER_43_111
*1383 FILLER_43_113
*1384 FILLER_43_125
*1385 FILLER_43_137
*1386 FILLER_43_149
*1387 FILLER_43_15
*1388 FILLER_43_161
*1389 FILLER_43_167
*1390 FILLER_43_169
*1391 FILLER_43_181
*1392 FILLER_43_193
*1393 FILLER_43_205
*1394 FILLER_43_217
*1395 FILLER_43_223
*1396 FILLER_43_225
*1397 FILLER_43_237
*1398 FILLER_43_249
*1399 FILLER_43_261
*1400 FILLER_43_27
*1401 FILLER_43_273
*1402 FILLER_43_279
*1403 FILLER_43_281
*1404 FILLER_43_293
*1405 FILLER_43_3
*1406 FILLER_43_39
*1407 FILLER_43_51
*1408 FILLER_43_55
*1409 FILLER_43_57
*1410 FILLER_43_69
*1411 FILLER_43_81
*1412 FILLER_43_93
*1413 FILLER_44_109
*1414 FILLER_44_121
*1415 FILLER_44_133
*1416 FILLER_44_139
*1417 FILLER_44_141
*1418 FILLER_44_15
*1419 FILLER_44_153
*1420 FILLER_44_165
*1421 FILLER_44_177
*1422 FILLER_44_189
*1423 FILLER_44_195
*1424 FILLER_44_197
*1425 FILLER_44_209
*1426 FILLER_44_221
*1427 FILLER_44_233
*1428 FILLER_44_245
*1429 FILLER_44_251
*1430 FILLER_44_253
*1431 FILLER_44_265
*1432 FILLER_44_27
*1433 FILLER_44_277
*1434 FILLER_44_289
*1435 FILLER_44_29
*1436 FILLER_44_297
*1437 FILLER_44_3
*1438 FILLER_44_41
*1439 FILLER_44_53
*1440 FILLER_44_65
*1441 FILLER_44_77
*1442 FILLER_44_83
*1443 FILLER_44_85
*1444 FILLER_44_97
*1445 FILLER_45_105
*1446 FILLER_45_111
*1447 FILLER_45_113
*1448 FILLER_45_125
*1449 FILLER_45_137
*1450 FILLER_45_149
*1451 FILLER_45_15
*1452 FILLER_45_161
*1453 FILLER_45_167
*1454 FILLER_45_169
*1455 FILLER_45_181
*1456 FILLER_45_189
*1457 FILLER_45_195
*1458 FILLER_45_207
*1459 FILLER_45_219
*1460 FILLER_45_223
*1461 FILLER_45_225
*1462 FILLER_45_237
*1463 FILLER_45_249
*1464 FILLER_45_261
*1465 FILLER_45_27
*1466 FILLER_45_273
*1467 FILLER_45_279
*1468 FILLER_45_281
*1469 FILLER_45_293
*1470 FILLER_45_3
*1471 FILLER_45_39
*1472 FILLER_45_51
*1473 FILLER_45_55
*1474 FILLER_45_57
*1475 FILLER_45_69
*1476 FILLER_45_81
*1477 FILLER_45_93
*1478 FILLER_46_105
*1479 FILLER_46_111
*1480 FILLER_46_113
*1481 FILLER_46_125
*1482 FILLER_46_141
*1483 FILLER_46_15
*1484 FILLER_46_153
*1485 FILLER_46_167
*1486 FILLER_46_169
*1487 FILLER_46_181
*1488 FILLER_46_193
*1489 FILLER_46_197
*1490 FILLER_46_209
*1491 FILLER_46_223
*1492 FILLER_46_225
*1493 FILLER_46_237
*1494 FILLER_46_249
*1495 FILLER_46_253
*1496 FILLER_46_265
*1497 FILLER_46_27
*1498 FILLER_46_277
*1499 FILLER_46_281
*1500 FILLER_46_29
*1501 FILLER_46_293
*1502 FILLER_46_3
*1503 FILLER_46_41
*1504 FILLER_46_53
*1505 FILLER_46_57
*1506 FILLER_46_69
*1507 FILLER_46_81
*1508 FILLER_46_85
*1509 FILLER_46_97
*1510 FILLER_4_109
*1511 FILLER_4_121
*1512 FILLER_4_133
*1513 FILLER_4_139
*1514 FILLER_4_141
*1515 FILLER_4_15
*1516 FILLER_4_153
*1517 FILLER_4_165
*1518 FILLER_4_177
*1519 FILLER_4_189
*1520 FILLER_4_195
*1521 FILLER_4_197
*1522 FILLER_4_209
*1523 FILLER_4_221
*1524 FILLER_4_233
*1525 FILLER_4_245
*1526 FILLER_4_251
*1527 FILLER_4_253
*1528 FILLER_4_265
*1529 FILLER_4_27
*1530 FILLER_4_277
*1531 FILLER_4_289
*1532 FILLER_4_29
*1533 FILLER_4_297
*1534 FILLER_4_3
*1535 FILLER_4_41
*1536 FILLER_4_53
*1537 FILLER_4_65
*1538 FILLER_4_77
*1539 FILLER_4_83
*1540 FILLER_4_85
*1541 FILLER_4_97
*1542 FILLER_5_105
*1543 FILLER_5_111
*1544 FILLER_5_113
*1545 FILLER_5_125
*1546 FILLER_5_137
*1547 FILLER_5_149
*1548 FILLER_5_15
*1549 FILLER_5_161
*1550 FILLER_5_167
*1551 FILLER_5_169
*1552 FILLER_5_181
*1553 FILLER_5_193
*1554 FILLER_5_205
*1555 FILLER_5_217
*1556 FILLER_5_223
*1557 FILLER_5_225
*1558 FILLER_5_237
*1559 FILLER_5_249
*1560 FILLER_5_261
*1561 FILLER_5_27
*1562 FILLER_5_273
*1563 FILLER_5_279
*1564 FILLER_5_281
*1565 FILLER_5_293
*1566 FILLER_5_3
*1567 FILLER_5_39
*1568 FILLER_5_51
*1569 FILLER_5_55
*1570 FILLER_5_57
*1571 FILLER_5_69
*1572 FILLER_5_81
*1573 FILLER_5_93
*1574 FILLER_6_109
*1575 FILLER_6_121
*1576 FILLER_6_133
*1577 FILLER_6_139
*1578 FILLER_6_141
*1579 FILLER_6_15
*1580 FILLER_6_153
*1581 FILLER_6_165
*1582 FILLER_6_177
*1583 FILLER_6_189
*1584 FILLER_6_195
*1585 FILLER_6_197
*1586 FILLER_6_209
*1587 FILLER_6_221
*1588 FILLER_6_233
*1589 FILLER_6_245
*1590 FILLER_6_251
*1591 FILLER_6_253
*1592 FILLER_6_265
*1593 FILLER_6_27
*1594 FILLER_6_277
*1595 FILLER_6_289
*1596 FILLER_6_29
*1597 FILLER_6_297
*1598 FILLER_6_3
*1599 FILLER_6_41
*1600 FILLER_6_53
*1601 FILLER_6_65
*1602 FILLER_6_77
*1603 FILLER_6_83
*1604 FILLER_6_85
*1605 FILLER_6_97
*1606 FILLER_7_105
*1607 FILLER_7_111
*1608 FILLER_7_113
*1609 FILLER_7_125
*1610 FILLER_7_137
*1611 FILLER_7_149
*1612 FILLER_7_15
*1613 FILLER_7_161
*1614 FILLER_7_167
*1615 FILLER_7_169
*1616 FILLER_7_185
*1617 FILLER_7_197
*1618 FILLER_7_209
*1619 FILLER_7_221
*1620 FILLER_7_225
*1621 FILLER_7_237
*1622 FILLER_7_249
*1623 FILLER_7_261
*1624 FILLER_7_27
*1625 FILLER_7_273
*1626 FILLER_7_279
*1627 FILLER_7_281
*1628 FILLER_7_293
*1629 FILLER_7_3
*1630 FILLER_7_39
*1631 FILLER_7_51
*1632 FILLER_7_55
*1633 FILLER_7_57
*1634 FILLER_7_69
*1635 FILLER_7_81
*1636 FILLER_7_93
*1637 FILLER_8_109
*1638 FILLER_8_121
*1639 FILLER_8_133
*1640 FILLER_8_139
*1641 FILLER_8_141
*1642 FILLER_8_15
*1643 FILLER_8_153
*1644 FILLER_8_165
*1645 FILLER_8_177
*1646 FILLER_8_188
*1647 FILLER_8_197
*1648 FILLER_8_209
*1649 FILLER_8_221
*1650 FILLER_8_233
*1651 FILLER_8_245
*1652 FILLER_8_251
*1653 FILLER_8_253
*1654 FILLER_8_265
*1655 FILLER_8_27
*1656 FILLER_8_277
*1657 FILLER_8_289
*1658 FILLER_8_29
*1659 FILLER_8_297
*1660 FILLER_8_3
*1661 FILLER_8_41
*1662 FILLER_8_53
*1663 FILLER_8_65
*1664 FILLER_8_77
*1665 FILLER_8_83
*1666 FILLER_8_85
*1667 FILLER_8_97
*1668 FILLER_9_105
*1669 FILLER_9_111
*1670 FILLER_9_113
*1671 FILLER_9_125
*1672 FILLER_9_137
*1673 FILLER_9_149
*1674 FILLER_9_15
*1675 FILLER_9_157
*1676 FILLER_9_169
*1677 FILLER_9_197
*1678 FILLER_9_209
*1679 FILLER_9_221
*1680 FILLER_9_225
*1681 FILLER_9_237
*1682 FILLER_9_249
*1683 FILLER_9_261
*1684 FILLER_9_27
*1685 FILLER_9_273
*1686 FILLER_9_279
*1687 FILLER_9_281
*1688 FILLER_9_293
*1689 FILLER_9_3
*1690 FILLER_9_39
*1691 FILLER_9_51
*1692 FILLER_9_55
*1693 FILLER_9_57
*1694 FILLER_9_69
*1695 FILLER_9_81
*1696 FILLER_9_93
*1697 PHY_EDGE_ROW_0_Left_47
*1698 PHY_EDGE_ROW_0_Right_0
*1699 PHY_EDGE_ROW_10_Left_57
*1700 PHY_EDGE_ROW_10_Right_10
*1701 PHY_EDGE_ROW_11_Left_58
*1702 PHY_EDGE_ROW_11_Right_11
*1703 PHY_EDGE_ROW_12_Left_59
*1704 PHY_EDGE_ROW_12_Right_12
*1705 PHY_EDGE_ROW_13_Left_60
*1706 PHY_EDGE_ROW_13_Right_13
*1707 PHY_EDGE_ROW_14_Left_61
*1708 PHY_EDGE_ROW_14_Right_14
*1709 PHY_EDGE_ROW_15_Left_62
*1710 PHY_EDGE_ROW_15_Right_15
*1711 PHY_EDGE_ROW_16_Left_63
*1712 PHY_EDGE_ROW_16_Right_16
*1713 PHY_EDGE_ROW_17_Left_64
*1714 PHY_EDGE_ROW_17_Right_17
*1715 PHY_EDGE_ROW_18_Left_65
*1716 PHY_EDGE_ROW_18_Right_18
*1717 PHY_EDGE_ROW_19_Left_66
*1718 PHY_EDGE_ROW_19_Right_19
*1719 PHY_EDGE_ROW_1_Left_48
*1720 PHY_EDGE_ROW_1_Right_1
*1721 PHY_EDGE_ROW_20_Left_67
*1722 PHY_EDGE_ROW_20_Right_20
*1723 PHY_EDGE_ROW_21_Left_68
*1724 PHY_EDGE_ROW_21_Right_21
*1725 PHY_EDGE_ROW_22_Left_69
*1726 PHY_EDGE_ROW_22_Right_22
*1727 PHY_EDGE_ROW_23_Left_70
*1728 PHY_EDGE_ROW_23_Right_23
*1729 PHY_EDGE_ROW_24_Left_71
*1730 PHY_EDGE_ROW_24_Right_24
*1731 PHY_EDGE_ROW_25_Left_72
*1732 PHY_EDGE_ROW_25_Right_25
*1733 PHY_EDGE_ROW_26_Left_73
*1734 PHY_EDGE_ROW_26_Right_26
*1735 PHY_EDGE_ROW_27_Left_74
*1736 PHY_EDGE_ROW_27_Right_27
*1737 PHY_EDGE_ROW_28_Left_75
*1738 PHY_EDGE_ROW_28_Right_28
*1739 PHY_EDGE_ROW_29_Left_76
*1740 PHY_EDGE_ROW_29_Right_29
*1741 PHY_EDGE_ROW_2_Left_49
*1742 PHY_EDGE_ROW_2_Right_2
*1743 PHY_EDGE_ROW_30_Left_77
*1744 PHY_EDGE_ROW_30_Right_30
*1745 PHY_EDGE_ROW_31_Left_78
*1746 PHY_EDGE_ROW_31_Right_31
*1747 PHY_EDGE_ROW_32_Left_79
*1748 PHY_EDGE_ROW_32_Right_32
*1749 PHY_EDGE_ROW_33_Left_80
*1750 PHY_EDGE_ROW_33_Right_33
*1751 PHY_EDGE_ROW_34_Left_81
*1752 PHY_EDGE_ROW_34_Right_34
*1753 PHY_EDGE_ROW_35_Left_82
*1754 PHY_EDGE_ROW_35_Right_35
*1755 PHY_EDGE_ROW_36_Left_83
*1756 PHY_EDGE_ROW_36_Right_36
*1757 PHY_EDGE_ROW_37_Left_84
*1758 PHY_EDGE_ROW_37_Right_37
*1759 PHY_EDGE_ROW_38_Left_85
*1760 PHY_EDGE_ROW_38_Right_38
*1761 PHY_EDGE_ROW_39_Left_86
*1762 PHY_EDGE_ROW_39_Right_39
*1763 PHY_EDGE_ROW_3_Left_50
*1764 PHY_EDGE_ROW_3_Right_3
*1765 PHY_EDGE_ROW_40_Left_87
*1766 PHY_EDGE_ROW_40_Right_40
*1767 PHY_EDGE_ROW_41_Left_88
*1768 PHY_EDGE_ROW_41_Right_41
*1769 PHY_EDGE_ROW_42_Left_89
*1770 PHY_EDGE_ROW_42_Right_42
*1771 PHY_EDGE_ROW_43_Left_90
*1772 PHY_EDGE_ROW_43_Right_43
*1773 PHY_EDGE_ROW_44_Left_91
*1774 PHY_EDGE_ROW_44_Right_44
*1775 PHY_EDGE_ROW_45_Left_92
*1776 PHY_EDGE_ROW_45_Right_45
*1777 PHY_EDGE_ROW_46_Left_93
*1778 PHY_EDGE_ROW_46_Right_46
*1779 PHY_EDGE_ROW_4_Left_51
*1780 PHY_EDGE_ROW_4_Right_4
*1781 PHY_EDGE_ROW_5_Left_52
*1782 PHY_EDGE_ROW_5_Right_5
*1783 PHY_EDGE_ROW_6_Left_53
*1784 PHY_EDGE_ROW_6_Right_6
*1785 PHY_EDGE_ROW_7_Left_54
*1786 PHY_EDGE_ROW_7_Right_7
*1787 PHY_EDGE_ROW_8_Left_55
*1788 PHY_EDGE_ROW_8_Right_8
*1789 PHY_EDGE_ROW_9_Left_56
*1790 PHY_EDGE_ROW_9_Right_9
*1791 TAP_TAPCELL_ROW_0_100
*1792 TAP_TAPCELL_ROW_0_101
*1793 TAP_TAPCELL_ROW_0_102
*1794 TAP_TAPCELL_ROW_0_103
*1795 TAP_TAPCELL_ROW_0_94
*1796 TAP_TAPCELL_ROW_0_95
*1797 TAP_TAPCELL_ROW_0_96
*1798 TAP_TAPCELL_ROW_0_97
*1799 TAP_TAPCELL_ROW_0_98
*1800 TAP_TAPCELL_ROW_0_99
*1801 TAP_TAPCELL_ROW_10_149
*1802 TAP_TAPCELL_ROW_10_150
*1803 TAP_TAPCELL_ROW_10_151
*1804 TAP_TAPCELL_ROW_10_152
*1805 TAP_TAPCELL_ROW_10_153
*1806 TAP_TAPCELL_ROW_11_154
*1807 TAP_TAPCELL_ROW_11_155
*1808 TAP_TAPCELL_ROW_11_156
*1809 TAP_TAPCELL_ROW_11_157
*1810 TAP_TAPCELL_ROW_11_158
*1811 TAP_TAPCELL_ROW_12_159
*1812 TAP_TAPCELL_ROW_12_160
*1813 TAP_TAPCELL_ROW_12_161
*1814 TAP_TAPCELL_ROW_12_162
*1815 TAP_TAPCELL_ROW_12_163
*1816 TAP_TAPCELL_ROW_13_164
*1817 TAP_TAPCELL_ROW_13_165
*1818 TAP_TAPCELL_ROW_13_166
*1819 TAP_TAPCELL_ROW_13_167
*1820 TAP_TAPCELL_ROW_13_168
*1821 TAP_TAPCELL_ROW_14_169
*1822 TAP_TAPCELL_ROW_14_170
*1823 TAP_TAPCELL_ROW_14_171
*1824 TAP_TAPCELL_ROW_14_172
*1825 TAP_TAPCELL_ROW_14_173
*1826 TAP_TAPCELL_ROW_15_174
*1827 TAP_TAPCELL_ROW_15_175
*1828 TAP_TAPCELL_ROW_15_176
*1829 TAP_TAPCELL_ROW_15_177
*1830 TAP_TAPCELL_ROW_15_178
*1831 TAP_TAPCELL_ROW_16_179
*1832 TAP_TAPCELL_ROW_16_180
*1833 TAP_TAPCELL_ROW_16_181
*1834 TAP_TAPCELL_ROW_16_182
*1835 TAP_TAPCELL_ROW_16_183
*1836 TAP_TAPCELL_ROW_17_184
*1837 TAP_TAPCELL_ROW_17_185
*1838 TAP_TAPCELL_ROW_17_186
*1839 TAP_TAPCELL_ROW_17_187
*1840 TAP_TAPCELL_ROW_17_188
*1841 TAP_TAPCELL_ROW_18_189
*1842 TAP_TAPCELL_ROW_18_190
*1843 TAP_TAPCELL_ROW_18_191
*1844 TAP_TAPCELL_ROW_18_192
*1845 TAP_TAPCELL_ROW_18_193
*1846 TAP_TAPCELL_ROW_19_194
*1847 TAP_TAPCELL_ROW_19_195
*1848 TAP_TAPCELL_ROW_19_196
*1849 TAP_TAPCELL_ROW_19_197
*1850 TAP_TAPCELL_ROW_19_198
*1851 TAP_TAPCELL_ROW_1_104
*1852 TAP_TAPCELL_ROW_1_105
*1853 TAP_TAPCELL_ROW_1_106
*1854 TAP_TAPCELL_ROW_1_107
*1855 TAP_TAPCELL_ROW_1_108
*1856 TAP_TAPCELL_ROW_20_199
*1857 TAP_TAPCELL_ROW_20_200
*1858 TAP_TAPCELL_ROW_20_201
*1859 TAP_TAPCELL_ROW_20_202
*1860 TAP_TAPCELL_ROW_20_203
*1861 TAP_TAPCELL_ROW_21_204
*1862 TAP_TAPCELL_ROW_21_205
*1863 TAP_TAPCELL_ROW_21_206
*1864 TAP_TAPCELL_ROW_21_207
*1865 TAP_TAPCELL_ROW_21_208
*1866 TAP_TAPCELL_ROW_22_209
*1867 TAP_TAPCELL_ROW_22_210
*1868 TAP_TAPCELL_ROW_22_211
*1869 TAP_TAPCELL_ROW_22_212
*1870 TAP_TAPCELL_ROW_22_213
*1871 TAP_TAPCELL_ROW_23_214
*1872 TAP_TAPCELL_ROW_23_215
*1873 TAP_TAPCELL_ROW_23_216
*1874 TAP_TAPCELL_ROW_23_217
*1875 TAP_TAPCELL_ROW_23_218
*1876 TAP_TAPCELL_ROW_24_219
*1877 TAP_TAPCELL_ROW_24_220
*1878 TAP_TAPCELL_ROW_24_221
*1879 TAP_TAPCELL_ROW_24_222
*1880 TAP_TAPCELL_ROW_24_223
*1881 TAP_TAPCELL_ROW_25_224
*1882 TAP_TAPCELL_ROW_25_225
*1883 TAP_TAPCELL_ROW_25_226
*1884 TAP_TAPCELL_ROW_25_227
*1885 TAP_TAPCELL_ROW_25_228
*1886 TAP_TAPCELL_ROW_26_229
*1887 TAP_TAPCELL_ROW_26_230
*1888 TAP_TAPCELL_ROW_26_231
*1889 TAP_TAPCELL_ROW_26_232
*1890 TAP_TAPCELL_ROW_26_233
*1891 TAP_TAPCELL_ROW_27_234
*1892 TAP_TAPCELL_ROW_27_235
*1893 TAP_TAPCELL_ROW_27_236
*1894 TAP_TAPCELL_ROW_27_237
*1895 TAP_TAPCELL_ROW_27_238
*1896 TAP_TAPCELL_ROW_28_239
*1897 TAP_TAPCELL_ROW_28_240
*1898 TAP_TAPCELL_ROW_28_241
*1899 TAP_TAPCELL_ROW_28_242
*1900 TAP_TAPCELL_ROW_28_243
*1901 TAP_TAPCELL_ROW_29_244
*1902 TAP_TAPCELL_ROW_29_245
*1903 TAP_TAPCELL_ROW_29_246
*1904 TAP_TAPCELL_ROW_29_247
*1905 TAP_TAPCELL_ROW_29_248
*1906 TAP_TAPCELL_ROW_2_109
*1907 TAP_TAPCELL_ROW_2_110
*1908 TAP_TAPCELL_ROW_2_111
*1909 TAP_TAPCELL_ROW_2_112
*1910 TAP_TAPCELL_ROW_2_113
*1911 TAP_TAPCELL_ROW_30_249
*1912 TAP_TAPCELL_ROW_30_250
*1913 TAP_TAPCELL_ROW_30_251
*1914 TAP_TAPCELL_ROW_30_252
*1915 TAP_TAPCELL_ROW_30_253
*1916 TAP_TAPCELL_ROW_31_254
*1917 TAP_TAPCELL_ROW_31_255
*1918 TAP_TAPCELL_ROW_31_256
*1919 TAP_TAPCELL_ROW_31_257
*1920 TAP_TAPCELL_ROW_31_258
*1921 TAP_TAPCELL_ROW_32_259
*1922 TAP_TAPCELL_ROW_32_260
*1923 TAP_TAPCELL_ROW_32_261
*1924 TAP_TAPCELL_ROW_32_262
*1925 TAP_TAPCELL_ROW_32_263
*1926 TAP_TAPCELL_ROW_33_264
*1927 TAP_TAPCELL_ROW_33_265
*1928 TAP_TAPCELL_ROW_33_266
*1929 TAP_TAPCELL_ROW_33_267
*1930 TAP_TAPCELL_ROW_33_268
*1931 TAP_TAPCELL_ROW_34_269
*1932 TAP_TAPCELL_ROW_34_270
*1933 TAP_TAPCELL_ROW_34_271
*1934 TAP_TAPCELL_ROW_34_272
*1935 TAP_TAPCELL_ROW_34_273
*1936 TAP_TAPCELL_ROW_35_274
*1937 TAP_TAPCELL_ROW_35_275
*1938 TAP_TAPCELL_ROW_35_276
*1939 TAP_TAPCELL_ROW_35_277
*1940 TAP_TAPCELL_ROW_35_278
*1941 TAP_TAPCELL_ROW_36_279
*1942 TAP_TAPCELL_ROW_36_280
*1943 TAP_TAPCELL_ROW_36_281
*1944 TAP_TAPCELL_ROW_36_282
*1945 TAP_TAPCELL_ROW_36_283
*1946 TAP_TAPCELL_ROW_37_284
*1947 TAP_TAPCELL_ROW_37_285
*1948 TAP_TAPCELL_ROW_37_286
*1949 TAP_TAPCELL_ROW_37_287
*1950 TAP_TAPCELL_ROW_37_288
*1951 TAP_TAPCELL_ROW_38_289
*1952 TAP_TAPCELL_ROW_38_290
*1953 TAP_TAPCELL_ROW_38_291
*1954 TAP_TAPCELL_ROW_38_292
*1955 TAP_TAPCELL_ROW_38_293
*1956 TAP_TAPCELL_ROW_39_294
*1957 TAP_TAPCELL_ROW_39_295
*1958 TAP_TAPCELL_ROW_39_296
*1959 TAP_TAPCELL_ROW_39_297
*1960 TAP_TAPCELL_ROW_39_298
*1961 TAP_TAPCELL_ROW_3_114
*1962 TAP_TAPCELL_ROW_3_115
*1963 TAP_TAPCELL_ROW_3_116
*1964 TAP_TAPCELL_ROW_3_117
*1965 TAP_TAPCELL_ROW_3_118
*1966 TAP_TAPCELL_ROW_40_299
*1967 TAP_TAPCELL_ROW_40_300
*1968 TAP_TAPCELL_ROW_40_301
*1969 TAP_TAPCELL_ROW_40_302
*1970 TAP_TAPCELL_ROW_40_303
*1971 TAP_TAPCELL_ROW_41_304
*1972 TAP_TAPCELL_ROW_41_305
*1973 TAP_TAPCELL_ROW_41_306
*1974 TAP_TAPCELL_ROW_41_307
*1975 TAP_TAPCELL_ROW_41_308
*1976 TAP_TAPCELL_ROW_42_309
*1977 TAP_TAPCELL_ROW_42_310
*1978 TAP_TAPCELL_ROW_42_311
*1979 TAP_TAPCELL_ROW_42_312
*1980 TAP_TAPCELL_ROW_42_313
*1981 TAP_TAPCELL_ROW_43_314
*1982 TAP_TAPCELL_ROW_43_315
*1983 TAP_TAPCELL_ROW_43_316
*1984 TAP_TAPCELL_ROW_43_317
*1985 TAP_TAPCELL_ROW_43_318
*1986 TAP_TAPCELL_ROW_44_319
*1987 TAP_TAPCELL_ROW_44_320
*1988 TAP_TAPCELL_ROW_44_321
*1989 TAP_TAPCELL_ROW_44_322
*1990 TAP_TAPCELL_ROW_44_323
*1991 TAP_TAPCELL_ROW_45_324
*1992 TAP_TAPCELL_ROW_45_325
*1993 TAP_TAPCELL_ROW_45_326
*1994 TAP_TAPCELL_ROW_45_327
*1995 TAP_TAPCELL_ROW_45_328
*1996 TAP_TAPCELL_ROW_46_329
*1997 TAP_TAPCELL_ROW_46_330
*1998 TAP_TAPCELL_ROW_46_331
*1999 TAP_TAPCELL_ROW_46_332
*2000 TAP_TAPCELL_ROW_46_333
*2001 TAP_TAPCELL_ROW_46_334
*2002 TAP_TAPCELL_ROW_46_335
*2003 TAP_TAPCELL_ROW_46_336
*2004 TAP_TAPCELL_ROW_46_337
*2005 TAP_TAPCELL_ROW_46_338
*2006 TAP_TAPCELL_ROW_4_119
*2007 TAP_TAPCELL_ROW_4_120
*2008 TAP_TAPCELL_ROW_4_121
*2009 TAP_TAPCELL_ROW_4_122
*2010 TAP_TAPCELL_ROW_4_123
*2011 TAP_TAPCELL_ROW_5_124
*2012 TAP_TAPCELL_ROW_5_125
*2013 TAP_TAPCELL_ROW_5_126
*2014 TAP_TAPCELL_ROW_5_127
*2015 TAP_TAPCELL_ROW_5_128
*2016 TAP_TAPCELL_ROW_6_129
*2017 TAP_TAPCELL_ROW_6_130
*2018 TAP_TAPCELL_ROW_6_131
*2019 TAP_TAPCELL_ROW_6_132
*2020 TAP_TAPCELL_ROW_6_133
*2021 TAP_TAPCELL_ROW_7_134
*2022 TAP_TAPCELL_ROW_7_135
*2023 TAP_TAPCELL_ROW_7_136
*2024 TAP_TAPCELL_ROW_7_137
*2025 TAP_TAPCELL_ROW_7_138
*2026 TAP_TAPCELL_ROW_8_139
*2027 TAP_TAPCELL_ROW_8_140
*2028 TAP_TAPCELL_ROW_8_141
*2029 TAP_TAPCELL_ROW_8_142
*2030 TAP_TAPCELL_ROW_8_143
*2031 TAP_TAPCELL_ROW_9_144
*2032 TAP_TAPCELL_ROW_9_145
*2033 TAP_TAPCELL_ROW_9_146
*2034 TAP_TAPCELL_ROW_9_147
*2035 TAP_TAPCELL_ROW_9_148
*2036 _124_
*2037 _125_
*2038 _126_
*2039 _127_
*2040 _128_
*2041 _129_
*2042 _130_
*2043 _131_
*2044 _132_
*2045 _133_
*2046 _134_
*2047 _135_
*2048 _136_
*2049 _137_
*2050 _138_
*2051 _139_
*2052 _140_
*2053 _141_
*2054 _142_
*2055 _143_
*2056 _144_
*2057 _145_
*2058 _146_
*2059 _147_
*2060 _148_
*2061 _149_
*2062 _150_
*2063 _151_
*2064 _152_
*2065 _153_
*2066 _154_
*2067 _155_
*2068 _156_
*2069 _157_
*2070 _158_
*2071 _159_
*2072 _160_
*2073 _161_
*2074 _162_
*2075 _163_
*2076 _164_
*2077 _165_
*2078 _166_
*2079 _167_
*2080 _168_
*2081 _169_
*2082 _170_
*2083 _171_
*2084 _172_
*2085 _173_
*2086 _174_
*2087 _175_
*2088 _176_
*2089 _177_
*2090 _178_
*2091 _179_
*2092 _180_
*2093 _181_
*2094 _182_
*2095 _183_
*2096 _184_
*2097 _185_
*2098 _186_
*2099 _187_
*2100 _188_
*2101 _189_
*2102 _190_
*2103 _191_
*2104 _192_
*2105 _193_
*2106 _194_
*2107 _195_
*2108 _196_
*2109 _197_
*2110 _198_
*2111 _199_
*2112 _200_
*2113 _201_
*2114 _202_
*2115 _203_
*2116 _204_
*2117 _205_
*2118 _206_
*2119 _207_
*2120 _208_
*2121 _209_
*2122 _210_
*2123 _211_
*2124 _212_
*2125 _213_
*2126 _214_
*2127 _215_
*2128 _216_
*2129 _217_
*2130 _218_
*2131 _219_
*2132 _220_
*2133 _221_
*2134 _222_
*2135 _223_
*2136 _224_
*2137 _225_
*2138 _226_
*2139 _227_
*2140 _228_
*2141 _229_
*2142 _230_
*2143 _231_
*2144 _232_
*2145 _233_
*2146 _234_
*2147 _235_
*2148 _236_
*2149 _237_
*2150 _238_
*2151 _239_
*2152 _240_
*2153 _241_
*2154 _242_
*2155 _243_
*2156 _244_
*2157 _245_
*2158 _246_
*2159 _247_
*2160 _248_
*2161 _249_
*2162 _250_
*2163 _251_
*2164 _252_
*2165 _253_
*2166 _254_
*2167 _255_
*2168 _256_
*2169 _257_
*2170 _258_
*2171 _259_
*2172 _260_
*2173 _261_
*2174 _262_
*2175 _263_
*2176 _264_
*2177 _265_
*2178 _266_
*2179 _267_
*2180 _268_
*2181 _269_
*2182 _270_
*2183 _271_
*2184 _272_
*2185 _273_
*2186 _274_
*2187 _275_
*2188 _276_
*2189 _277_
*2190 _278_
*2191 _279_
*2192 _280_
*2193 _281_
*2194 _282_
*2195 _283_
*2196 _284_
*2197 _285_
*2198 _286_
*2199 _287_
*2200 _288_
*2201 _289_
*2202 _290_
*2203 clkbuf_0_clk
*2204 clkbuf_0_clk_regs
*2205 clkbuf_1_0__f_clk
*2206 clkbuf_2_0__f_clk_regs
*2207 clkbuf_2_1__f_clk_regs
*2208 clkbuf_2_2__f_clk_regs
*2209 clkbuf_2_3__f_clk_regs
*2210 clkbuf_regs_0_clk
*2211 clkload0
*2212 clkload1
*2213 clkload2
*2214 hold100
*2215 hold101
*2216 hold102
*2217 hold103
*2218 hold104
*2219 hold105
*2220 hold106
*2221 hold107
*2222 hold108
*2223 hold109
*2224 hold110
*2225 hold111
*2226 hold112
*2227 hold113
*2228 hold114
*2229 hold115
*2230 hold116
*2231 hold117
*2232 hold118
*2233 hold119
*2234 hold120
*2235 hold121
*2236 hold122
*2237 hold123
*2238 hold124
*2239 hold125
*2240 hold126
*2241 hold127
*2242 hold128
*2243 hold129
*2244 hold130
*2245 hold131
*2246 hold132
*2247 hold133
*2248 hold134
*2249 hold135
*2250 hold136
*2251 hold137
*2252 hold138
*2253 hold139
*2254 hold140
*2255 hold141
*2256 hold142
*2257 hold143
*2258 hold144
*2259 hold145
*2260 hold146
*2261 hold147
*2262 hold148
*2263 hold149
*2264 hold150
*2265 hold151
*2266 hold152
*2267 hold153
*2268 hold154
*2269 hold155
*2270 hold156
*2271 hold157
*2272 hold158
*2273 hold159
*2274 hold160
*2275 hold161
*2276 hold162
*2277 hold45
*2278 hold46
*2279 hold47
*2280 hold48
*2281 hold49
*2282 hold50
*2283 hold51
*2284 hold52
*2285 hold53
*2286 hold54
*2287 hold55
*2288 hold56
*2289 hold57
*2290 hold58
*2291 hold59
*2292 hold60
*2293 hold61
*2294 hold62
*2295 hold63
*2296 hold64
*2297 hold65
*2298 hold66
*2299 hold67
*2300 hold68
*2301 hold69
*2302 hold70
*2303 hold71
*2304 hold72
*2305 hold73
*2306 hold74
*2307 hold75
*2308 hold76
*2309 hold77
*2310 hold78
*2311 hold79
*2312 hold80
*2313 hold81
*2314 hold82
*2315 hold83
*2316 hold84
*2317 hold85
*2318 hold86
*2319 hold87
*2320 hold88
*2321 hold89
*2322 hold90
*2323 hold91
*2324 hold92
*2325 hold93
*2326 hold94
*2327 hold95
*2328 hold96
*2329 hold97
*2330 hold98
*2331 hold99
*2332 input1
*2333 input2
*2334 input3
*2335 input4
*2336 input5
*2337 max_cap39
*2338 max_cap40
*2339 max_cap41
*2340 max_cap42
*2341 max_cap43
*2342 max_cap44
*2343 output10
*2344 output11
*2345 output12
*2346 output13
*2347 output14
*2348 output15
*2349 output16
*2350 output17
*2351 output18
*2352 output19
*2353 output20
*2354 output21
*2355 output22
*2356 output23
*2357 output24
*2358 output25
*2359 output26
*2360 output27
*2361 output28
*2362 output29
*2363 output30
*2364 output31
*2365 output32
*2366 output33
*2367 output34
*2368 output35
*2369 output36
*2370 output37
*2371 output38
*2372 output6
*2373 output7
*2374 output8
*2375 output9

*PORTS
busy O
clk I
comparator_bit I
comparator_evaluate O
data[0] O
data[10] O
data[11] O
data[1] O
data[2] O
data[3] O
data[4] O
data[5] O
data[6] O
data[7] O
data[8] O
data[9] O
data_gain[0] O
data_gain[1] O
data_valid O
gain_latched[0] O
gain_latched[1] O
gain_sel[0] I
gain_sel[1] I
ready O
rst_n I
sample_en O
start I
trial_code[0] O
trial_code[10] O
trial_code[11] O
trial_code[1] O
trial_code[2] O
trial_code[3] O
trial_code[4] O
trial_code[5] O
trial_code[6] O
trial_code[7] O
trial_code[8] O
trial_code[9] O

*D_NET *3 0.000879247
*CONN
*P busy O
*I *2372:X O *D sky130_fd_sc_hd__buf_2
*CAP
1 busy 0.000350043
2 *2372:X 0.000350043
3 busy ready 0.00017916
*RES
1 *2372:X busy 8.8207 
*END

*D_NET *4 0.0162448
*CONN
*P clk I
*I *2203:A I *D sky130_fd_sc_hd__clkbuf_16
*I *2210:A I *D sky130_fd_sc_hd__clkbuf_16
*CAP
1 clk 0.00598584
2 *2203:A 0
3 *2210:A 0
4 *4:34 0.000811285
5 *4:25 0.000877879
6 *4:18 0.000126005
7 *4:10 0.00604525
8 *4:10 *2077:A2 0.000293666
9 *4:10 *2120:B1 6.25916e-05
10 *4:10 *2121:A2 0
11 *4:10 *2149:A2 0.000178293
12 *4:10 *2248:A 0.000162448
13 *4:10 *2366:A 0
14 *4:10 *140:43 0
15 *4:10 *175:11 0.000124542
16 *4:10 *175:47 0.000735965
17 *4:18 *2243:A 9.03508e-06
18 *4:18 *213:20 3.17783e-05
19 *4:25 *213:20 7.89777e-05
20 *4:34 *2051:A 0.000201688
21 *4:34 *2051:B 2.88436e-05
22 *4:34 *2055:A 0
23 *4:34 *2056:B 7.93938e-05
24 *4:34 *2198:RESET_B 0
25 *4:34 *2247:A 0
26 *4:34 *175:11 0.000380142
27 *4:34 *213:20 3.11614e-05
28 *4:34 *282:353 0
29 *4:34 *282:355 0
30 *4:34 *282:365 0
*RES
1 clk *4:10 36.6799 
2 *4:10 *4:18 3.12875 
3 *4:18 *2210:A 1.6 
4 *4:18 *4:25 1.37625 
5 *4:25 *4:34 18.575 
6 *4:34 *2203:A 3.6 
*END

*D_NET *5 0.00140057
*CONN
*P comparator_bit I
*I *2332:A I *D sky130_fd_sc_hd__buf_2
*CAP
1 comparator_bit 0.000615757
2 *2332:A 0.000615757
3 *2332:A trial_code[2] 0
4 *2332:A *2345:A 9.05349e-05
5 *2332:A *2364:A 6.05989e-05
6 *2332:A *181:14 1.79174e-05
*RES
1 comparator_bit *2332:A 15.39 
*END

*D_NET *6 0.00117411
*CONN
*P comparator_evaluate O
*I *2373:X O *D sky130_fd_sc_hd__buf_2
*CAP
1 comparator_evaluate 0.000587053
2 *2373:X 0.000587053
*RES
1 *2373:X comparator_evaluate 13.23 
*END

*D_NET *7 0.000736607
*CONN
*P data[0] O
*I *2374:X O *D sky130_fd_sc_hd__buf_2
*CAP
1 data[0] 0.00026632
2 *2374:X 0.00026632
3 data[0] trial_code[0] 0.000203967
4 data[0] trial_code[7] 0
*RES
1 *2374:X data[0] 5.27997 
*END

*D_NET *8 0.00105972
*CONN
*P data[10] O
*I *2375:X O *D sky130_fd_sc_hd__buf_2
*CAP
1 data[10] 0.000390677
2 *2375:X 0.000390677
3 data[10] trial_code[10] 0.000278369
4 data[10] *2375:A 0
*RES
1 *2375:X data[10] 8.69377 
*END

*D_NET *9 0.00112798
*CONN
*P data[11] O
*I *2343:X O *D sky130_fd_sc_hd__buf_2
*CAP
1 data[11] 0.000514934
2 *2343:X 0.000514934
3 data[11] trial_code[11] 9.81149e-05
*RES
1 *2343:X data[11] 6.52797 
*END

*D_NET *10 0.000848619
*CONN
*P data[1] O
*I *2344:X O *D sky130_fd_sc_hd__buf_2
*CAP
1 data[1] 0.000424309
2 *2344:X 0.000424309
*RES
1 *2344:X data[1] 6.29997 
*END

*D_NET *11 0.00127602
*CONN
*P data[2] O
*I *2345:X O *D sky130_fd_sc_hd__buf_2
*CAP
1 data[2] 0.000404417
2 *2345:X 0.000404417
3 data[2] trial_code[2] 0.000467191
*RES
1 *2345:X data[2] 13.44 
*END

*D_NET *12 0.00113478
*CONN
*P data[3] O
*I *2346:X O *D sky130_fd_sc_hd__buf_2
*CAP
1 data[3] 0.000567391
2 *2346:X 0.000567391
3 data[3] trial_code[3] 0
*RES
1 *2346:X data[3] 13.44 
*END

*D_NET *13 0.000836306
*CONN
*P data[4] O
*I *2347:X O *D sky130_fd_sc_hd__buf_2
*CAP
1 data[4] 0.000418153
2 *2347:X 0.000418153
3 data[4] trial_code[10] 0
*RES
1 *2347:X data[4] 6.2949 
*END

*D_NET *14 0.00101056
*CONN
*P data[5] O
*I *2348:X O *D sky130_fd_sc_hd__buf_2
*CAP
1 data[5] 0.000290369
2 *2348:X 0.000290369
3 data[5] trial_code[5] 0.000371019
4 data[5] *2367:A 5.8807e-05
*RES
1 *2348:X data[5] 6.29997 
*END

*D_NET *15 0.00100408
*CONN
*P data[6] O
*I *2349:X O *D sky130_fd_sc_hd__buf_2
*CAP
1 data[6] 0.000286851
2 *2349:X 0.000286851
3 data[6] trial_code[5] 0
4 data[6] trial_code[6] 0.000369687
5 data[6] *2368:A 6.06899e-05
*RES
1 *2349:X data[6] 6.29997 
*END

*D_NET *16 0.000852511
*CONN
*P data[7] O
*I *2350:X O *D sky130_fd_sc_hd__buf_2
*CAP
1 data[7] 0.000318819
2 *2350:X 0.000318819
3 data[7] data_valid 0
4 data[7] trial_code[7] 0.000214873
*RES
1 *2350:X data[7] 6.29997 
*END

*D_NET *17 0.00136195
*CONN
*P data[8] O
*I *2351:X O *D sky130_fd_sc_hd__buf_2
*CAP
1 data[8] 0.000213786
2 *2351:X 0.000213786
3 data[8] trial_code[4] 0.000467191
4 data[8] trial_code[8] 0.000467191
*RES
1 *2351:X data[8] 13.095 
*END

*D_NET *18 0.00113478
*CONN
*P data[9] O
*I *2352:X O *D sky130_fd_sc_hd__buf_2
*CAP
1 data[9] 0.000567391
2 *2352:X 0.000567391
3 data[9] trial_code[9] 0
*RES
1 *2352:X data[9] 13.44 
*END

*D_NET *19 0.000849747
*CONN
*P data_gain[0] O
*I *2353:X O *D sky130_fd_sc_hd__buf_2
*CAP
1 data_gain[0] 0.000424874
2 *2353:X 0.000424874
3 data_gain[0] data_valid 0
*RES
1 *2353:X data_gain[0] 6.29997 
*END

*D_NET *20 0.00154582
*CONN
*P data_gain[1] O
*I *2354:X O *D sky130_fd_sc_hd__buf_2
*CAP
1 data_gain[1] 0.000496622
2 *2354:X 0.000496622
3 data_gain[1] gain_latched[0] 0
4 data_gain[1] gain_latched[1] 0
5 data_gain[1] *2333:A 0.000453598
6 data_gain[1] *2357:A 7.56675e-05
7 data_gain[1] *255:12 2.33079e-05
8 data_gain[1] *266:14 0
*RES
1 *2354:X data_gain[1] 14.925 
*END

*D_NET *21 0.000836576
*CONN
*P data_valid O
*I *2355:X O *D sky130_fd_sc_hd__buf_2
*CAP
1 data_valid 0.000418288
2 *2355:X 0.000418288
3 data[7] data_valid 0
4 data_gain[0] data_valid 0
*RES
1 *2355:X data_valid 6.29997 
*END

*D_NET *22 0.00120872
*CONN
*P gain_latched[0] O
*I *2356:X O *D sky130_fd_sc_hd__buf_2
*CAP
1 gain_latched[0] 0.000604358
2 *2356:X 0.000604358
3 data_gain[1] gain_latched[0] 0
*RES
1 *2356:X gain_latched[0] 14.295 
*END

*D_NET *23 0.00161006
*CONN
*P gain_latched[1] O
*I *2357:X O *D sky130_fd_sc_hd__buf_2
*CAP
1 gain_latched[1] 0.000303716
2 *2357:X 0.000303716
3 gain_latched[1] *2333:A 0.000487308
4 gain_latched[1] *2334:A 0.000467034
5 gain_latched[1] *266:14 4.82919e-05
6 data_gain[1] gain_latched[1] 0
*RES
1 *2357:X gain_latched[1] 14.595 
*END

*D_NET *24 0.00158153
*CONN
*P gain_sel[0] I
*I *2333:A I *D sky130_fd_sc_hd__buf_2
*CAP
1 gain_sel[0] 0.000320313
2 *2333:A 0.000320313
3 data_gain[1] *2333:A 0.000453598
4 gain_latched[1] *2333:A 0.000487308
*RES
1 gain_sel[0] *2333:A 14.535 
*END

*D_NET *25 0.00122364
*CONN
*P gain_sel[1] I
*I *2334:A I *D sky130_fd_sc_hd__buf_2
*CAP
1 gain_sel[1] 0.000368018
2 *2334:A 0.000368018
3 *2334:A *2336:A 0
4 *2334:A *266:14 2.0566e-05
5 gain_latched[1] *2334:A 0.000467034
*RES
1 gain_sel[1] *2334:A 13.05 
*END

*D_NET *26 0.00134683
*CONN
*P ready O
*I *2358:X O *D sky130_fd_sc_hd__buf_2
*CAP
1 ready 0.000539959
2 *2358:X 0.000539959
3 ready *2372:A 8.77498e-05
4 busy ready 0.00017916
*RES
1 *2358:X ready 10.5203 
*END

*D_NET *27 0.0014662
*CONN
*P rst_n I
*I *2335:A I *D sky130_fd_sc_hd__buf_2
*CAP
1 rst_n 0.000435823
2 *2335:A 0.000435823
3 *2335:A trial_code[1] 0.000519454
4 *2335:A *2363:A 7.50972e-05
*RES
1 rst_n *2335:A 14.295 
*END

*D_NET *28 0.0011114
*CONN
*P sample_en O
*I *2359:X O *D sky130_fd_sc_hd__buf_2
*CAP
1 sample_en 0.000555702
2 *2359:X 0.000555702
*RES
1 *2359:X sample_en 12.885 
*END

*D_NET *29 0.00108581
*CONN
*P start I
*I *2336:A I *D sky130_fd_sc_hd__buf_2
*CAP
1 start 0.000533712
2 *2336:A 0.000533712
3 *2336:A *2048:B1_N 1.83847e-05
4 *2334:A *2336:A 0
*RES
1 start *2336:A 13.05 
*END

*D_NET *30 0.000753053
*CONN
*P trial_code[0] O
*I *2360:X O *D sky130_fd_sc_hd__buf_2
*CAP
1 trial_code[0] 0.000274543
2 *2360:X 0.000274543
3 data[0] trial_code[0] 0.000203967
*RES
1 *2360:X trial_code[0] 5.27997 
*END

*D_NET *31 0.00121441
*CONN
*P trial_code[10] O
*I *2361:X O *D sky130_fd_sc_hd__buf_2
*CAP
1 trial_code[10] 0.000468019
2 *2361:X 0.000468019
3 trial_code[10] *2375:A 0
4 data[10] trial_code[10] 0.000278369
5 data[4] trial_code[10] 0
*RES
1 *2361:X trial_code[10] 9.5003 
*END

*D_NET *32 0.000852771
*CONN
*P trial_code[11] O
*I *2362:X O *D sky130_fd_sc_hd__buf_2
*CAP
1 trial_code[11] 0.000377328
2 *2362:X 0.000377328
3 data[11] trial_code[11] 9.81149e-05
*RES
1 *2362:X trial_code[11] 8.8207 
*END

*D_NET *33 0.00152983
*CONN
*P trial_code[1] O
*I *2363:X O *D sky130_fd_sc_hd__buf_2
*CAP
1 trial_code[1] 0.000490563
2 *2363:X 0.000490563
3 trial_code[1] *2363:A 2.92441e-05
4 *2335:A trial_code[1] 0.000519454
*RES
1 *2363:X trial_code[1] 14.805 
*END

*D_NET *34 0.00138692
*CONN
*P trial_code[2] O
*I *2364:X O *D sky130_fd_sc_hd__buf_2
*CAP
1 trial_code[2] 0.000459863
2 *2364:X 0.000459863
3 data[2] trial_code[2] 0.000467191
4 *2332:A trial_code[2] 0
*RES
1 *2364:X trial_code[2] 14.235 
*END

*D_NET *35 0.00113971
*CONN
*P trial_code[3] O
*I *2365:X O *D sky130_fd_sc_hd__buf_2
*CAP
1 trial_code[3] 0.000569855
2 *2365:X 0.000569855
3 data[3] trial_code[3] 0
*RES
1 *2365:X trial_code[3] 13.44 
*END

*D_NET *36 0.00123588
*CONN
*P trial_code[4] O
*I *2366:X O *D sky130_fd_sc_hd__buf_2
*CAP
1 trial_code[4] 0.000369929
2 *2366:X 0.000369929
3 trial_code[4] *2351:A 2.88357e-05
4 data[8] trial_code[4] 0.000467191
*RES
1 *2366:X trial_code[4] 13.095 
*END

*D_NET *37 0.000856713
*CONN
*P trial_code[5] O
*I *2367:X O *D sky130_fd_sc_hd__buf_2
*CAP
1 trial_code[5] 0.000242847
2 *2367:X 0.000242847
3 data[5] trial_code[5] 0.000371019
4 data[6] trial_code[5] 0
*RES
1 *2367:X trial_code[5] 5.27997 
*END

*D_NET *38 0.000881147
*CONN
*P trial_code[6] O
*I *2368:X O *D sky130_fd_sc_hd__buf_2
*CAP
1 trial_code[6] 0.00025573
2 *2368:X 0.00025573
3 data[6] trial_code[6] 0.000369687
*RES
1 *2368:X trial_code[6] 5.27997 
*END

*D_NET *39 0.000852511
*CONN
*P trial_code[7] O
*I *2369:X O *D sky130_fd_sc_hd__buf_2
*CAP
1 trial_code[7] 0.000318819
2 *2369:X 0.000318819
3 data[0] trial_code[7] 0
4 data[7] trial_code[7] 0.000214873
*RES
1 *2369:X trial_code[7] 6.29997 
*END

*D_NET *40 0.00132864
*CONN
*P trial_code[8] O
*I *2370:X O *D sky130_fd_sc_hd__buf_2
*CAP
1 trial_code[8] 0.000430727
2 *2370:X 0.000430727
3 data[8] trial_code[8] 0.000467191
*RES
1 *2370:X trial_code[8] 13.785 
*END

*D_NET *41 0.00113478
*CONN
*P trial_code[9] O
*I *2371:X O *D sky130_fd_sc_hd__buf_2
*CAP
1 trial_code[9] 0.000567391
2 *2371:X 0.000567391
3 data[9] trial_code[9] 0
*RES
1 *2371:X trial_code[9] 13.44 
*END

*D_NET *42 0.0191188
*CONN
*I *2093:B I *D sky130_fd_sc_hd__nor2_1
*I *2096:A1 I *D sky130_fd_sc_hd__a21oi_1
*I *2099:B I *D sky130_fd_sc_hd__nor2_1
*I *2100:A1 I *D sky130_fd_sc_hd__a21oi_1
*I *2081:B I *D sky130_fd_sc_hd__nor2_1
*I *2141:C I *D sky130_fd_sc_hd__nor3_1
*I *2140:B I *D sky130_fd_sc_hd__nor3_1
*I *2043:B I *D sky130_fd_sc_hd__nor2_1
*I *2044:A2 I *D sky130_fd_sc_hd__o21ai_0
*I *2108:A1 I *D sky130_fd_sc_hd__a21oi_1
*I *2082:A1 I *D sky130_fd_sc_hd__a21oi_1
*I *2103:B I *D sky130_fd_sc_hd__nor2_1
*I *2104:A1 I *D sky130_fd_sc_hd__a21oi_1
*I *2107:B I *D sky130_fd_sc_hd__nor2_1
*I *2057:A2 I *D sky130_fd_sc_hd__o2111ai_1
*I *2258:A I *D sky130_fd_sc_hd__dlygate4sd3_1
*I *2042:Y O *D sky130_fd_sc_hd__nor2_2
*CAP
1 *2093:B 0.000271254
2 *2096:A1 0.000116264
3 *2099:B 2.08101e-05
4 *2100:A1 0
5 *2081:B 0
6 *2141:C 0.000111199
7 *2140:B 0
8 *2043:B 0
9 *2044:A2 0
10 *2108:A1 0
11 *2082:A1 0.000647754
12 *2103:B 9.4305e-05
13 *2104:A1 0
14 *2107:B 0.000220108
15 *2057:A2 4.2528e-05
16 *2258:A 3.37454e-05
17 *2042:Y 0.00021462
18 *42:215 0.000884331
19 *42:204 0.000934228
20 *42:191 0.000810444
21 *42:178 0.000718976
22 *42:101 0.000307933
23 *42:97 0.000755706
24 *42:82 0.000439569
25 *42:80 0.000963699
26 *42:70 0.00154515
27 *42:45 0.000749897
28 *42:39 0.000280129
29 *42:31 0.000162726
30 *42:27 0.000996496
31 *42:10 0.00112514
32 *2057:A2 *85:8 6.28765e-05
33 *2057:A2 *210:24 0.000114492
34 *2082:A1 *2082:A2 4.99619e-05
35 *2082:A1 *2303:A 0.000213581
36 *2082:A1 *2305:A 0.00011852
37 *2082:A1 *282:176 7.53115e-05
38 *2093:B *2370:A 0
39 *2093:B *2371:A 7.45712e-05
40 *2096:A1 *2096:B1 0.000150851
41 *2096:A1 *2177:D 9.54399e-05
42 *2096:A1 *2370:A 0
43 *2096:A1 *2371:A 8.98657e-05
44 *2103:B *2104:A2 4.89295e-05
45 *2103:B *2304:A 4.40028e-05
46 *2107:B *2107:A 4.77807e-05
47 *2107:B *2108:A2 0.000118685
48 *2107:B *2294:A 2.69443e-06
49 *2107:B *2295:A 4.04857e-05
50 *2107:B *2296:A 0
51 *2141:C *2043:A 6.2706e-05
52 *2141:C *2138:A1 0
53 *2141:C *2141:B 0.000106648
54 *2141:C *219:16 8.40269e-05
55 *2141:C *279:14 0.000160118
56 *42:10 *2042:B 0.000285738
57 *42:10 *2129:B2 0.000158072
58 *42:10 *279:73 3.75492e-05
59 *42:10 *280:16 0.000181383
60 *42:27 *2143:A1 1.32141e-05
61 *42:27 *2150:A1 0.000393039
62 *42:27 *2150:A2 0.000117975
63 *42:27 *279:14 0.000368838
64 *42:27 *279:41 6.28203e-05
65 *42:31 *2043:A 1.7635e-05
66 *42:31 *279:14 1.88904e-05
67 *42:39 *2138:A2 0.000162325
68 *42:39 *2140:A 0.000192125
69 *42:39 *2152:A 0.000160658
70 *42:45 *2138:A2 1.1561e-05
71 *42:45 *2240:A 4.66108e-05
72 *42:45 *85:8 8.71001e-05
73 *42:45 *85:12 4.82919e-05
74 *42:45 *210:24 6.21553e-05
75 *42:45 *210:50 0.00011852
76 *42:70 *2044:A1 4.82863e-05
77 *42:70 *2053:B1 9.59747e-05
78 *42:70 *2151:A2 0.000110668
79 *42:70 *2199:D 6.71882e-05
80 *42:70 *2241:A 0.00010441
81 *42:70 *81:43 3.13457e-05
82 *42:70 *81:49 6.90699e-05
83 *42:70 *210:20 7.03608e-05
84 *42:80 *2108:B1 4.99619e-05
85 *42:80 *2111:A2 0
86 *42:80 *2180:CLK 0.000284926
87 *42:80 *2201:RESET_B 8.53113e-06
88 *42:80 *2230:A 0
89 *42:80 *2255:A 5.72091e-05
90 *42:80 *2296:A 0.000178188
91 *42:80 *81:49 0
92 *42:97 *2108:A2 4.61595e-05
93 *42:97 *2179:D 0
94 *42:97 *2179:RESET_B 1.26548e-05
95 *42:97 *2180:CLK 0
96 *42:97 *2296:A 0
97 *42:97 *2303:A 7.06865e-05
98 *42:97 *282:202 0
99 *42:101 *2104:A2 9.83993e-05
100 *42:101 *2104:B1 4.99619e-05
101 *42:101 *2193:RESET_B 8.23457e-05
102 *42:178 *2081:A 3.38818e-05
103 *42:178 *2082:A2 4.99619e-05
104 *42:178 *2082:B1 0.000319174
105 *42:178 *2315:A 0.000120186
106 *42:178 *179:70 0
107 *42:178 *179:74 0
108 *42:178 *282:176 0
109 *42:191 *2081:A 8.33066e-06
110 *42:191 *2134:A2 0
111 *42:204 *2099:A 0
112 *42:204 *2289:A 7.00889e-06
113 *42:204 *2290:A 0
114 *42:204 *2352:A 0
115 *42:204 *254:12 0.000139933
116 *42:215 *2289:A 0.00015095
*RES
1 *2042:Y *42:10 8.505 
2 *42:10 *2258:A 4.05 
3 *42:10 *42:27 3.1356 
4 *42:27 *42:31 2.2325 
5 *42:31 *42:39 7.72 
6 *42:39 *42:45 5.285 
7 *42:45 *2057:A2 4.98 
8 *42:45 *42:70 12.035 
9 *42:70 *42:80 20.845 
10 *42:80 *42:82 2 
11 *42:82 *2107:B 7.77 
12 *42:82 *42:97 4.185 
13 *42:97 *42:101 4.865 
14 *42:101 *2104:A1 1.6 
15 *42:101 *2103:B 3.46 
16 *42:97 *2082:A1 9.615 
17 *42:80 *2108:A1 1.6 
18 *42:70 *2044:A2 1.6 
19 *42:39 *2043:B 1.6 
20 *42:31 *2140:B 1.6 
21 *42:27 *2141:C 6.7725 
22 *2082:A1 *42:178 11.535 
23 *42:178 *2081:B 3.6 
24 *42:178 *42:191 6.27 
25 *42:191 *2100:A1 3.6 
26 *42:191 *42:204 9.275 
27 *42:204 *2099:B 1.96 
28 *42:204 *42:215 10.04 
29 *42:215 *2096:A1 7.275 
30 *42:215 *2093:B 8.265 
*END

*D_NET *43 0.000213332
*CONN
*I *2241:A I *D sky130_fd_sc_hd__dlygate4sd3_1
*I *2053:Y O *D sky130_fd_sc_hd__a21oi_1
*CAP
1 *2241:A 2.79272e-05
2 *2053:Y 2.79272e-05
3 *2241:A *2053:B1 5.30673e-05
4 *42:70 *2241:A 0.00010441
*RES
1 *2053:Y *2241:A 4.355 
*END

*D_NET *44 0.000445897
*CONN
*I *2238:A I *D sky130_fd_sc_hd__dlygate4sd3_1
*I *2052:Y O *D sky130_fd_sc_hd__nand2_1
*CAP
1 *2238:A 0.000153176
2 *2052:Y 0.000153176
3 *2238:A *2158:B 0
4 *2238:A *2200:D 5.3468e-05
5 *2238:A *164:10 0
6 *2238:A *203:23 8.6076e-05
*RES
1 *2052:Y *2238:A 10.065 
*END

*D_NET *45 0.00052261
*CONN
*I *2255:A I *D sky130_fd_sc_hd__dlygate4sd3_1
*I *2049:X O *D sky130_fd_sc_hd__a21o_1
*CAP
1 *2255:A 0.000193122
2 *2049:X 0.000193122
3 *2255:A *2049:A1 3.00381e-05
4 *2255:A *2201:RESET_B 0
5 *2255:A *299:14 4.91189e-05
6 *42:80 *2255:A 5.72091e-05
*RES
1 *2049:X *2255:A 11.07 
*END

*D_NET *46 0.000549829
*CONN
*I *2218:A I *D sky130_fd_sc_hd__dlygate4sd3_1
*I *2058:X O *D sky130_fd_sc_hd__mux2_1
*CAP
1 *2218:A 0.000137884
2 *2058:X 0.000137884
3 *2218:A *2058:A1 0.000274061
*RES
1 *2058:X *2218:A 6.335 
*END

*D_NET *47 0.000250674
*CONN
*I *2328:A I *D sky130_fd_sc_hd__dlygate4sd3_1
*I *2059:X O *D sky130_fd_sc_hd__mux2_1
*CAP
1 *2328:A 0.00010182
2 *2059:X 0.00010182
3 *2328:A *81:14 4.70343e-05
*RES
1 *2059:X *2328:A 9.03 
*END

*D_NET *48 0.000443675
*CONN
*I *2311:A I *D sky130_fd_sc_hd__dlygate4sd3_1
*I *2062:Y O *D sky130_fd_sc_hd__a21oi_1
*CAP
1 *2311:A 0.00016706
2 *2062:Y 0.00016706
3 *2311:A *2062:B1 0.000109554
*RES
1 *2062:Y *2311:A 6.08 
*END

*D_NET *49 0.00164999
*CONN
*I *2293:A I *D sky130_fd_sc_hd__dlygate4sd3_1
*I *2067:Y O *D sky130_fd_sc_hd__a21oi_1
*CAP
1 *2293:A 0.000566125
2 *2067:Y 0.000566125
3 *2293:A *2066:A 5.83121e-06
4 *2293:A *2174:RESET_B 0
5 *2293:A *2292:A 8.51879e-05
6 *2293:A *281:153 2.57358e-05
7 *2293:A *281:159 0.000400984
*RES
1 *2067:Y *2293:A 17.265 
*END

*D_NET *50 0.000418627
*CONN
*I *2282:A I *D sky130_fd_sc_hd__dlygate4sd3_1
*I *2072:Y O *D sky130_fd_sc_hd__a21oi_1
*CAP
1 *2282:A 0.000166393
2 *2072:Y 0.000166393
3 *2282:A *2072:B1 8.5841e-05
*RES
1 *2072:Y *2282:A 6.08 
*END

*D_NET *51 0.000323753
*CONN
*I *2279:A I *D sky130_fd_sc_hd__dlygate4sd3_1
*I *2077:Y O *D sky130_fd_sc_hd__a21oi_1
*CAP
1 *2279:A 9.36802e-05
2 *2077:Y 9.36802e-05
3 *2279:A *2077:B1 0.000136393
*RES
1 *2077:Y *2279:A 9.03 
*END

*D_NET *52 0.000113956
*CONN
*I *2316:A I *D sky130_fd_sc_hd__dlygate4sd3_1
*I *2082:Y O *D sky130_fd_sc_hd__a21oi_1
*CAP
1 *2316:A 4.64236e-05
2 *2082:Y 4.64236e-05
3 *2316:A *2082:A2 2.11084e-05
*RES
1 *2082:Y *2316:A 4.01 
*END

*D_NET *53 0.00202216
*CONN
*I *2302:A I *D sky130_fd_sc_hd__dlygate4sd3_1
*I *2085:Y O *D sky130_fd_sc_hd__a21oi_1
*CAP
1 *2302:A 0.000554788
2 *2085:Y 0.000554788
3 *2302:A *2085:A1 3.31348e-05
4 *2302:A *2085:B1 0.00015425
5 *2302:A *2226:A 0
6 *2302:A *2275:A 0.000114326
7 *2302:A *196:6 4.89295e-05
8 *2302:A *281:127 9.84957e-05
9 *2302:A *281:153 0.000463444
*RES
1 *2085:Y *2302:A 19.065 
*END

*D_NET *54 0.000636812
*CONN
*I *2308:A I *D sky130_fd_sc_hd__dlygate4sd3_1
*I *2088:Y O *D sky130_fd_sc_hd__a21oi_1
*CAP
1 *2308:A 0.000245359
2 *2088:Y 0.000245359
3 *2308:A *2368:A 0.000146094
*RES
1 *2088:Y *2308:A 7.46 
*END

*D_NET *55 0.000359167
*CONN
*I *2299:A I *D sky130_fd_sc_hd__dlygate4sd3_1
*I *2092:Y O *D sky130_fd_sc_hd__a21oi_1
*CAP
1 *2299:A 0.000116055
2 *2092:Y 0.000116055
3 *2299:A *2202:CLK 8.53113e-06
4 *2299:A *178:104 0.000118527
5 *2299:A *281:29 0
*RES
1 *2092:Y *2299:A 9.375 
*END

*D_NET *56 0.000457087
*CONN
*I *2285:A I *D sky130_fd_sc_hd__dlygate4sd3_1
*I *2096:Y O *D sky130_fd_sc_hd__a21oi_1
*CAP
1 *2285:A 0.000177202
2 *2096:Y 0.000177202
3 *2285:A *2177:D 1.7386e-05
4 *2285:A *2178:RESET_B 8.52972e-05
*RES
1 *2096:Y *2285:A 6.08 
*END

*D_NET *57 0.000731909
*CONN
*I *2290:A I *D sky130_fd_sc_hd__dlygate4sd3_1
*I *2100:Y O *D sky130_fd_sc_hd__a21oi_1
*CAP
1 *2290:A 0.00026673
2 *2100:Y 0.00026673
3 *2290:A *2100:A2 6.65733e-05
4 *2290:A *2178:D 5.21046e-05
5 *2290:A *2289:A 7.97704e-05
6 *42:204 *2290:A 0
*RES
1 *2100:Y *2290:A 12.105 
*END

*D_NET *58 0.000884823
*CONN
*I *2305:A I *D sky130_fd_sc_hd__dlygate4sd3_1
*I *2104:Y O *D sky130_fd_sc_hd__a21oi_1
*CAP
1 *2305:A 0.000247109
2 *2104:Y 0.000247109
3 *2305:A *2104:A2 0
4 *2305:A *2215:A 0
5 *2305:A *2361:A 0.000272085
6 *2082:A1 *2305:A 0.00011852
*RES
1 *2104:Y *2305:A 11.1 
*END

*D_NET *59 0.00064161
*CONN
*I *2296:A I *D sky130_fd_sc_hd__dlygate4sd3_1
*I *2108:Y O *D sky130_fd_sc_hd__a21oi_1
*CAP
1 *2296:A 0.000194618
2 *2108:Y 0.000194618
3 *2296:A *2108:B1 4.99619e-05
4 *2296:A *2180:CLK 2.42236e-05
5 *2107:B *2296:A 0
6 *42:80 *2296:A 0.000178188
7 *42:97 *2296:A 0
*RES
1 *2108:Y *2296:A 11.19 
*END

*D_NET *60 0.00118346
*CONN
*I *2262:A I *D sky130_fd_sc_hd__dlygate4sd3_1
*I *2109:X O *D sky130_fd_sc_hd__mux2_1
*CAP
1 *2262:A 0.000487142
2 *2109:X 0.000487142
3 *2262:A *2181:D 9.05592e-05
4 *2262:A *2313:A 0.000118621
5 *2262:A *281:37 0
*RES
1 *2109:X *2262:A 15.18 
*END

*D_NET *61 0.000118089
*CONN
*I *2260:A I *D sky130_fd_sc_hd__dlygate4sd3_1
*I *2110:X O *D sky130_fd_sc_hd__mux2_1
*CAP
1 *2260:A 4.40253e-05
2 *2110:X 4.40253e-05
3 *2260:A *2110:A0 3.00381e-05
4 *2260:A *2110:S 0
*RES
1 *2110:X *2260:A 4.01 
*END

*D_NET *62 0.000438635
*CONN
*I *2214:A I *D sky130_fd_sc_hd__dlygate4sd3_1
*I *2115:X O *D sky130_fd_sc_hd__a22o_1
*CAP
1 *2214:A 0.00016296
2 *2115:X 0.00016296
3 *2214:A *2183:D 7.03276e-05
4 *2214:A *281:92 4.23878e-05
*RES
1 *2115:X *2214:A 9.72 
*END

*D_NET *63 0.000588437
*CONN
*I *2330:A I *D sky130_fd_sc_hd__dlygate4sd3_1
*I *2117:X O *D sky130_fd_sc_hd__a22o_1
*CAP
1 *2330:A 0.000166802
2 *2117:X 0.000166802
3 *2330:A *2119:A2 5.19006e-06
4 *2330:A *2170:CLK 0.000235382
5 *2330:A *2184:D 1.42598e-05
*RES
1 *2117:X *2330:A 6.68 
*END

*D_NET *64 0.000561996
*CONN
*I *2324:A I *D sky130_fd_sc_hd__dlygate4sd3_1
*I *2119:X O *D sky130_fd_sc_hd__a22o_1
*CAP
1 *2324:A 7.79955e-05
2 *2119:X 7.79955e-05
3 *2324:A *2071:A2 9.03066e-05
4 *2324:A *2119:A1 4.51928e-05
5 *2324:A *95:6 0.000270505
*RES
1 *2119:X *2324:A 6.08 
*END

*D_NET *65 0.000536543
*CONN
*I *2326:A I *D sky130_fd_sc_hd__dlygate4sd3_1
*I *2121:X O *D sky130_fd_sc_hd__a22o_1
*CAP
1 *2326:A 6.92747e-05
2 *2121:X 6.92747e-05
3 *2326:A *2094:B 0.000279787
4 *2326:A *2121:A1 0.000118207
*RES
1 *2121:X *2326:A 6.08 
*END

*D_NET *66 0.000688944
*CONN
*I *2220:A I *D sky130_fd_sc_hd__dlygate4sd3_1
*I *2123:X O *D sky130_fd_sc_hd__a22o_1
*CAP
1 *2220:A 0.000120839
2 *2123:X 0.000120839
3 *2220:A *2122:A1 0.000138781
4 *2220:A *2122:B1 0.00011379
5 *2220:A *179:12 0.000194694
*RES
1 *2123:X *2220:A 10.41 
*END

*D_NET *67 0.000491428
*CONN
*I *2227:A I *D sky130_fd_sc_hd__dlygate4sd3_1
*I *2125:X O *D sky130_fd_sc_hd__a22o_1
*CAP
1 *2227:A 0.00014993
2 *2125:X 0.00014993
3 *2227:A *2174:CLK 2.75229e-05
4 *2227:A *2188:D 3.86607e-05
5 *2227:A *180:61 0.000116853
6 *2227:A *180:110 8.53113e-06
*RES
1 *2125:X *2227:A 9.72 
*END

*D_NET *68 0.000488411
*CONN
*I *2222:A I *D sky130_fd_sc_hd__dlygate4sd3_1
*I *2127:X O *D sky130_fd_sc_hd__a22o_1
*CAP
1 *2222:A 0.00011542
2 *2127:X 0.00011542
3 *2222:A *2175:CLK 0.000208452
4 *2222:A *279:90 4.91189e-05
*RES
1 *2127:X *2222:A 10.08 
*END

*D_NET *69 0.00131316
*CONN
*I *2225:A I *D sky130_fd_sc_hd__dlygate4sd3_1
*I *2130:Y O *D sky130_fd_sc_hd__o31ai_1
*CAP
1 *2225:A 0.000416072
2 *2130:Y 0.000416072
3 *2225:A *2128:B 0
4 *2225:A *2129:A2 0.000198939
5 *2225:A *2129:A3 4.39734e-05
6 *2225:A *2130:B1 0.000135199
7 *2225:A *2190:CLK 0
8 *2225:A *2190:D 0
9 *2225:A *108:10 2.05583e-05
10 *2225:A *279:73 8.23457e-05
*RES
1 *2130:Y *2225:A 13.86 
*END

*D_NET *70 0.000584956
*CONN
*I *2320:A I *D sky130_fd_sc_hd__dlygate4sd3_1
*I *2132:X O *D sky130_fd_sc_hd__a22o_1
*CAP
1 *2320:A 9.56968e-05
2 *2132:X 9.56968e-05
3 *2320:A *2096:A2 5.97306e-05
4 *2320:A *2098:A1 0.000156778
5 *2320:A *2134:B1 6.62684e-05
6 *2320:A *282:111 0.000110785
*RES
1 *2132:X *2320:A 10.065 
*END

*D_NET *71 0.000599
*CONN
*I *2322:A I *D sky130_fd_sc_hd__dlygate4sd3_1
*I *2134:X O *D sky130_fd_sc_hd__a22o_1
*CAP
1 *2322:A 0.000125392
2 *2134:X 0.000125392
3 *2322:A *2134:A2 8.41384e-05
4 *2322:A *2134:B1 0.000264077
*RES
1 *2134:X *2322:A 6.08 
*END

*D_NET *72 0.00207674
*CONN
*I *2216:A I *D sky130_fd_sc_hd__dlygate4sd3_1
*I *2136:X O *D sky130_fd_sc_hd__a22o_1
*CAP
1 *2216:A 0.000644303
2 *2136:X 0.000644303
3 *2216:A *2106:A1 0.000226943
4 *2216:A *2136:A2 5.00685e-05
5 *2216:A *2137:A2 0
6 *2216:A *2137:B1 0
7 *2216:A *2138:A3 0
8 *2216:A *2196:CLK 0.000201508
9 *2216:A *124:31 0.000309618
*RES
1 *2136:X *2216:A 18.315 
*END

*D_NET *73 0.000564761
*CONN
*I *2232:A I *D sky130_fd_sc_hd__dlygate4sd3_1
*I *2139:Y O *D sky130_fd_sc_hd__a21oi_1
*CAP
1 *2232:A 0.000135469
2 *2139:Y 0.000135469
3 *2232:A *2106:B1 3.38832e-05
4 *2232:A *2139:A1 6.22332e-05
5 *2232:A *2194:CLK 0.00012657
6 *2232:A *2196:RESET_B 7.11365e-05
*RES
1 *2139:Y *2232:A 10.74 
*END

*D_NET *74 0.00055441
*CONN
*I *2243:A I *D sky130_fd_sc_hd__dlygate4sd3_1
*I *2143:X O *D sky130_fd_sc_hd__o22a_1
*CAP
1 *2243:A 0.000153394
2 *2143:X 0.000153394
3 *2243:A *2142:A1 7.23602e-05
4 *2243:A *2143:B1 4.89295e-05
5 *2243:A *219:16 0.000117297
6 *4:18 *2243:A 9.03508e-06
*RES
1 *2143:X *2243:A 9.825 
*END

*D_NET *75 0.000300743
*CONN
*I *2246:A I *D sky130_fd_sc_hd__dlygate4sd3_1
*I *2146:Y O *D sky130_fd_sc_hd__a21oi_1
*CAP
1 *2246:A 0.000108463
2 *2146:Y 0.000108463
3 *2246:A *2146:A2 3.12983e-05
4 *2246:A *2146:B1 6.69608e-06
5 *2246:A *2149:B1 2.98644e-05
6 *2246:A *2194:CLK 1.5957e-05
*RES
1 *2146:Y *2246:A 9.05625 
*END

*D_NET *76 0.00229054
*CONN
*I *2249:A I *D sky130_fd_sc_hd__dlygate4sd3_1
*I *2149:Y O *D sky130_fd_sc_hd__a21oi_1
*CAP
1 *2249:A 0.000549843
2 *2149:Y 0.000549843
3 *2249:A *2069:B 0.00023301
4 *2249:A *2149:A1 3.51072e-05
5 *2249:A *2149:A2 1.77595e-05
6 *2249:A *2245:A 0.000326414
7 *2249:A *93:8 0.00023301
8 *2249:A *175:47 0.000234862
9 *2249:A *213:20 6.90254e-05
10 *2249:A *213:58 4.16618e-05
*RES
1 *2149:Y *2249:A 18.39 
*END

*D_NET *77 0.000202168
*CONN
*I *2251:A I *D sky130_fd_sc_hd__dlygate4sd3_1
*I *2151:X O *D sky130_fd_sc_hd__a32o_1
*CAP
1 *2251:A 5.02704e-05
2 *2151:X 5.02704e-05
3 *2251:A *2151:A2 3.68682e-05
4 *2251:A *2152:A 6.47594e-05
5 *2251:A *207:57 0
*RES
1 *2151:X *2251:A 8.58 
*END

*D_NET *78 0.000954923
*CONN
*I *2229:A I *D sky130_fd_sc_hd__dlygate4sd3_1
*I *2155:Y O *D sky130_fd_sc_hd__o21ai_0
*CAP
1 *2229:A 0.000205484
2 *2155:Y 0.000205484
3 *2229:A *2153:B 9.47911e-05
4 *2229:A *2155:A2 0.000262467
5 *2229:A *2160:B 0.000153238
6 *2229:A *150:14 3.34579e-05
*RES
1 *2155:Y *2229:A 12.435 
*END

*D_NET *79 0.00048692
*CONN
*I *2235:A I *D sky130_fd_sc_hd__dlygate4sd3_1
*I *2159:Y O *D sky130_fd_sc_hd__o21ai_0
*CAP
1 *2235:A 6.24177e-05
2 *2159:Y 6.24177e-05
3 *2235:A *2153:B 8.35157e-05
4 *2235:A *2159:B1 0.00011663
5 *2235:A *2165:CLK 0.000161939
*RES
1 *2159:Y *2235:A 9.375 
*END

*D_NET *80 0.000335226
*CONN
*I *2318:A I *D sky130_fd_sc_hd__dlygate4sd3_1
*I *2163:X O *D sky130_fd_sc_hd__o22a_1
*CAP
1 *2318:A 8.54633e-05
2 *2163:X 8.54633e-05
3 *2318:A *2054:A 4.73521e-05
4 *2318:A *207:10 0.000116947
*RES
1 *2163:X *2318:A 9.03 
*END

*D_NET *81 0.0109158
*CONN
*I *2053:A2 I *D sky130_fd_sc_hd__a21oi_1
*I *2111:A2 I *D sky130_fd_sc_hd__a21boi_0
*I *2049:A2 I *D sky130_fd_sc_hd__a21o_1
*I *2057:B1 I *D sky130_fd_sc_hd__o2111ai_1
*I *2048:Y O *D sky130_fd_sc_hd__a21boi_0
*CAP
1 *2053:A2 2.08101e-05
2 *2111:A2 0.000288225
3 *2049:A2 0
4 *2057:B1 0
5 *2048:Y 0.00184932
6 *81:49 0.000421159
7 *81:43 0.000517979
8 *81:22 0.000664284
9 *81:14 0.00214937
10 *2111:A2 *2111:A1 5.83121e-06
11 *81:14 *2052:A 0.000160314
12 *81:14 *2052:B 4.82863e-05
13 *81:14 *2056:A 8.52845e-05
14 *81:14 *2059:A0 0.00114701
15 *81:14 *2059:S 0.0003056
16 *81:14 *2110:A1 0
17 *81:14 *2168:CLK 9.24127e-05
18 *81:14 *2182:D 0.000120186
19 *81:14 *2205:A 0.000106779
20 *81:14 *174:15 0.000212469
21 *81:14 *178:14 0
22 *81:14 *178:20 8.69333e-05
23 *81:14 *178:22 0.000104996
24 *81:14 *266:14 5.34461e-05
25 *81:14 *280:16 0.000557803
26 *81:14 *338:10 0
27 *81:22 *2047:A 0.000336589
28 *81:22 *2057:A1 1.03755e-05
29 *81:22 *2152:A 9.81593e-05
30 *81:22 *2152:B 0.000162489
31 *81:22 *2253:A 8.65961e-05
32 *81:43 *2053:B1 0.000201503
33 *81:43 *2057:A1 4.66108e-05
34 *81:43 *2057:C1 9.53428e-06
35 *81:43 *2057:D1 5.4155e-06
36 *81:43 *2111:A1 0
37 *81:43 *2199:CLK 4.66826e-05
38 *81:43 *2199:D 7.23602e-05
39 *81:43 *210:20 0.000313852
40 *81:43 *210:24 2.24992e-05
41 *81:43 *211:12 2.92496e-05
42 *81:43 *282:308 0
43 *81:43 *282:340 3.17064e-05
44 *81:49 *2049:A1 9.47454e-05
45 *81:49 *2111:A1 0
46 *81:49 *210:20 0.000201508
47 *2328:A *81:14 4.70343e-05
48 *42:70 *81:43 3.13457e-05
49 *42:70 *81:49 6.90699e-05
50 *42:80 *2111:A2 0
51 *42:80 *81:49 0
*RES
1 *2048:Y *81:14 48.755 
2 *81:14 *81:22 10.885 
3 *81:22 *2057:B1 1.6 
4 *81:22 *81:43 12.01 
5 *81:43 *81:49 5.465 
6 *81:49 *2049:A2 3.6 
7 *81:49 *2111:A2 8.175 
8 *81:43 *2053:A2 1.96 
*END

*D_NET *82 0.000829203
*CONN
*I *2237:A I *D sky130_fd_sc_hd__dlygate4sd3_1
*I *2050:Y O *D sky130_fd_sc_hd__nand2_1
*CAP
1 *2237:A 0.000103217
2 *2050:Y 0.000103217
3 *2237:A *2050:B 2.59835e-05
4 *2237:A *2236:A 8.8266e-05
5 *2237:A *177:16 0.000227286
6 *2237:A *207:8 0.000281233
*RES
1 *2050:Y *2237:A 7.22 
*END

*D_NET *83 0.00345099
*CONN
*I *2057:C1 I *D sky130_fd_sc_hd__o2111ai_1
*I *2052:B I *D sky130_fd_sc_hd__nand2_1
*I *2051:Y O *D sky130_fd_sc_hd__nand2_1
*CAP
1 *2057:C1 0.000353901
2 *2052:B 0.000222904
3 *2051:Y 0.000469936
4 *83:10 0.00104674
5 *2052:B *2151:B2 2.92496e-05
6 *2052:B *2198:RESET_B 0
7 *2052:B *2200:D 0.000185405
8 *2052:B *177:10 0.000118527
9 *2052:B *177:99 9.54399e-05
10 *2052:B *282:353 0
11 *2052:B *282:355 0
12 *2057:C1 *2151:B1 1.12459e-05
13 *2057:C1 *2151:B2 0.000233557
14 *2057:C1 *282:340 8.73389e-06
15 *2057:C1 *282:351 0.000123786
16 *83:10 *2129:B2 0.000313055
17 *83:10 *2151:B2 9.37731e-05
18 *83:10 *177:99 8.69157e-05
19 *81:14 *2052:B 4.82863e-05
20 *81:43 *2057:C1 9.53428e-06
*RES
1 *2051:Y *83:10 10.35 
2 *83:10 *2052:B 8.745 
3 *83:10 *2057:C1 9.585 
*END

*D_NET *84 0.000509492
*CONN
*I *2056:B I *D sky130_fd_sc_hd__nor2_1
*I *2055:Y O *D sky130_fd_sc_hd__nand2_1
*CAP
1 *2056:B 0.000139062
2 *2055:Y 0.000139062
3 *2056:B *2228:A 1.48851e-05
4 *2056:B *282:365 0.000137089
5 *4:34 *2056:B 7.93938e-05
*RES
1 *2055:Y *2056:B 10.62 
*END

*D_NET *85 0.00533459
*CONN
*I *2138:A2 I *D sky130_fd_sc_hd__a311oi_1
*I *2129:A2 I *D sky130_fd_sc_hd__a32oi_1
*I *2113:C_N I *D sky130_fd_sc_hd__nor3b_1
*I *2340:A I *D sky130_fd_sc_hd__clkbuf_2
*I *2057:Y O *D sky130_fd_sc_hd__o2111ai_1
*CAP
1 *2138:A2 0.000206538
2 *2129:A2 0.000333126
3 *2113:C_N 1.88809e-05
4 *2340:A 0
5 *2057:Y 0.000114764
6 *85:19 0.00069259
7 *85:12 0.000718225
8 *85:8 0.000698942
9 *2113:C_N *2130:A1 5.4155e-06
10 *2129:A2 *2113:B 1.47256e-05
11 *2129:A2 *2129:A3 0
12 *2129:A2 *2130:A1 0.000191736
13 *2129:A2 *2130:B1 8.59462e-05
14 *2129:A2 *2190:CLK 3.18219e-05
15 *2129:A2 *125:14 8.40269e-05
16 *2129:A2 *279:41 2.87395e-05
17 *2129:A2 *279:50 4.78992e-05
18 *2138:A2 *2138:A1 0.000122325
19 *2138:A2 *2138:B1 0
20 *2138:A2 *2152:A 9.23395e-05
21 *2138:A2 *124:14 9.37731e-05
22 *2138:A2 *210:50 7.33465e-05
23 *85:8 *2047:A 0.000163992
24 *85:8 *2152:A 7.34364e-05
25 *85:8 *210:24 9.29751e-06
26 *85:12 *2043:A 0.000163204
27 *85:12 *2143:B2 0.000419159
28 *85:12 *2240:A 2.05056e-05
29 *85:19 *2113:B 4.9253e-06
30 *85:19 *2143:B2 4.89295e-05
31 *85:19 *2250:A 4.82919e-05
32 *85:19 *222:6 1.52352e-05
33 *85:19 *280:16 0.000141361
34 *2057:A2 *85:8 6.28765e-05
35 *2225:A *2129:A2 0.000198939
36 *42:39 *2138:A2 0.000162325
37 *42:45 *2138:A2 1.1561e-05
38 *42:45 *85:8 8.71001e-05
39 *42:45 *85:12 4.82919e-05
*RES
1 *2057:Y *85:8 7.02 
2 *85:8 *85:12 8.66 
3 *85:12 *2340:A 1.6 
4 *85:12 *85:19 5.625 
5 *85:19 *2113:C_N 1.96 
6 *85:19 *2129:A2 12.35 
7 *85:8 *2138:A2 8.67 
*END

*D_NET *86 0.00144272
*CONN
*I *2310:A I *D sky130_fd_sc_hd__dlygate4sd3_1
*I *2060:Y O *D sky130_fd_sc_hd__nor2_1
*CAP
1 *2310:A 0.000592551
2 *2060:Y 0.000592551
3 *2310:A *2060:A 0.000257618
4 *2310:A *277:120 0
*RES
1 *2060:Y *2310:A 15.555 
*END

*D_NET *87 0.00149744
*CONN
*I *2114:A I *D sky130_fd_sc_hd__nand2_1
*I *2062:A2 I *D sky130_fd_sc_hd__a21oi_1
*I *2061:Y O *D sky130_fd_sc_hd__o21ai_0
*CAP
1 *2114:A 7.02299e-05
2 *2062:A2 0.00032079
3 *2061:Y 0.00039102
4 *2062:A2 *278:10 0.000138106
5 *2062:A2 *279:90 0.000136679
6 *2062:A2 *281:92 0.000203396
7 *2114:A *2061:A1 8.82496e-05
8 *2114:A *2061:A2 2.21074e-05
9 *2114:A *2061:B1 5.83121e-06
10 *2114:A *2115:B2 0.000121032
*RES
1 *2061:Y *2062:A2 14.115 
2 *2061:Y *2114:A 5.045 
*END

*D_NET *88 0.00886779
*CONN
*I *2064:C I *D sky130_fd_sc_hd__or3_1
*I *2083:A2 I *D sky130_fd_sc_hd__o31ai_1
*I *2145:B I *D sky130_fd_sc_hd__nand3_1
*I *2122:A1 I *D sky130_fd_sc_hd__o21ai_0
*I *2097:C I *D sky130_fd_sc_hd__or3_1
*I *2063:Y O *D sky130_fd_sc_hd__nand2b_1
*CAP
1 *2064:C 0.000421984
2 *2083:A2 0.00038712
3 *2145:B 0.000145953
4 *2122:A1 0.000227074
5 *2097:C 2.14853e-05
6 *2063:Y 0.000123596
7 *88:61 0.00090441
8 *88:26 0.000400823
9 *88:18 0.00122141
10 *88:12 0.00114209
11 *2064:C *2064:A 2.05056e-05
12 *2064:C *2075:A 0.000390466
13 *2064:C *2094:B 0
14 *2064:C *175:47 0
15 *2064:C *222:148 7.22354e-05
16 *2083:A2 *2083:A1 4.66108e-05
17 *2083:A2 *2083:A3 1.54111e-05
18 *2083:A2 *101:6 0.000218692
19 *2083:A2 *229:30 0.000577747
20 *2097:C *2082:A2 7.00889e-06
21 *2097:C *2097:A 2.16833e-05
22 *2097:C *102:6 4.35348e-05
23 *2097:C *181:100 4.66108e-05
24 *2122:A1 *2097:B 0
25 *2122:A1 *2122:B1 3.90833e-05
26 *2122:A1 *2123:A2 4.1977e-05
27 *2122:A1 *2173:RESET_B 0.0001249
28 *2122:A1 *114:8 0
29 *2122:A1 *124:76 6.72338e-05
30 *2122:A1 *179:12 8.26671e-05
31 *2145:B *2137:A2 0.000232111
32 *2145:B *2145:A 8.40269e-05
33 *2145:B *2196:CLK 0.000162318
34 *2145:B *124:61 0.00021717
35 *88:12 *2074:B 4.91189e-05
36 *88:12 *2094:B 0
37 *88:12 *2197:RESET_B 9.71067e-05
38 *88:12 *175:47 0
39 *88:18 *2148:A 0.000278889
40 *88:18 *2197:CLK 0.000250912
41 *88:18 *2248:A 2.71912e-06
42 *88:18 *157:23 0.000232999
43 *88:26 *2097:B 6.57653e-06
44 *88:26 *2106:A1 0
45 *88:26 *2123:A2 8.53113e-06
46 *88:26 *124:61 0.000138292
47 *88:26 *181:100 0.000155928
48 *88:61 *175:47 0
49 *2220:A *2122:A1 0.000138781
*RES
1 *2063:Y *88:12 6.3 
2 *88:12 *88:18 15.835 
3 *88:18 *88:26 3.7425 
4 *88:26 *2097:C 4.395 
5 *88:26 *2122:A1 9.045 
6 *88:18 *2145:B 8.3025 
7 *88:12 *88:61 1.38 
8 *88:61 *2083:A2 12.5025 
9 *88:61 *2064:C 11.13 
*END

*D_NET *89 0.00415473
*CONN
*I *2065:A2 I *D sky130_fd_sc_hd__o21ai_0
*I *2114:B I *D sky130_fd_sc_hd__nand2_1
*I *2064:X O *D sky130_fd_sc_hd__or3_1
*CAP
1 *2065:A2 0.000335391
2 *2114:B 0.000531576
3 *2064:X 0.000246631
4 *89:6 0.0011136
5 *2065:A2 *2125:A2 4.9253e-06
6 *2065:A2 *2125:B2 1.4399e-05
7 *2065:A2 *278:32 0.00026272
8 *2065:A2 *279:109 0.000473655
9 *2114:B *2061:A1 1.44259e-05
10 *2114:B *2070:C 3.84331e-05
11 *2114:B *2124:A2 0.000231571
12 *2114:B *2124:B1 0.000166346
13 *2114:B *2126:B1 6.47594e-05
14 *2114:B *2127:B2 2.75538e-05
15 *2114:B *101:10 0.000338226
16 *2114:B *101:20 9.54399e-05
17 *2114:B *108:10 0.00016961
18 *2114:B *181:30 2.54692e-05
19 *2114:B *278:10 0
20 *2114:B *278:21 0
21 *2114:B *278:32 0
*RES
1 *2064:X *89:6 4.12 
2 *89:6 *2114:B 18.71 
3 *89:6 *2065:A2 13.235 
*END

*D_NET *90 0.00142263
*CONN
*I *2067:A2 I *D sky130_fd_sc_hd__a21oi_1
*I *2116:A I *D sky130_fd_sc_hd__nand2_1
*I *2065:Y O *D sky130_fd_sc_hd__o21ai_0
*CAP
1 *2067:A2 0.000126812
2 *2116:A 0.000374384
3 *2065:Y 0
4 *90:4 0.000501196
5 *2067:A2 *2065:B1 2.94492e-05
6 *2067:A2 *281:175 0.000134314
7 *2116:A *2065:A1 4.16445e-05
8 *2116:A *2065:B1 5.88321e-05
9 *2116:A *2186:RESET_B 2.98644e-05
10 *2116:A *94:10 4.57506e-05
11 *2116:A *181:24 8.03844e-05
*RES
1 *2065:Y *90:4 1.6 
2 *90:4 *2116:A 10.88 
3 *90:4 *2067:A2 4.39 
*END

*D_NET *91 0.000184186
*CONN
*I *2292:A I *D sky130_fd_sc_hd__dlygate4sd3_1
*I *2066:Y O *D sky130_fd_sc_hd__nor2_1
*CAP
1 *2292:A 2.5613e-05
2 *2066:Y 2.5613e-05
3 *2292:A *281:159 4.77719e-05
4 *2293:A *2292:A 8.51879e-05
*RES
1 *2066:Y *2292:A 3.995 
*END

*D_NET *92 0.000537783
*CONN
*I *2281:A I *D sky130_fd_sc_hd__dlygate4sd3_1
*I *2068:Y O *D sky130_fd_sc_hd__nor2_1
*CAP
1 *2281:A 0.000128998
2 *2068:Y 0.000128998
3 *2281:A *2068:A 0.000279787
*RES
1 *2068:Y *2281:A 6.065 
*END

*D_NET *93 0.00764761
*CONN
*I *2101:C I *D sky130_fd_sc_hd__or3_1
*I *2145:C I *D sky130_fd_sc_hd__nand3_1
*I *2086:A2 I *D sky130_fd_sc_hd__o31ai_1
*I *2070:C I *D sky130_fd_sc_hd__or3_1
*I *2124:A1 I *D sky130_fd_sc_hd__o21ai_0
*I *2069:Y O *D sky130_fd_sc_hd__nand2b_1
*CAP
1 *2101:C 0.000216733
2 *2145:C 6.05245e-05
3 *2086:A2 1.78628e-05
4 *2070:C 0.000323149
5 *2124:A1 0
6 *2069:Y 0.00116421
7 *93:56 0.00073156
8 *93:12 0.000455243
9 *93:8 0.000859869
10 *2070:C *2124:A2 9.50342e-06
11 *2070:C *94:10 5.73739e-05
12 *2070:C *181:24 2.92496e-05
13 *2070:C *181:26 0.000307289
14 *2070:C *181:76 0.000387891
15 *2070:C *278:32 0
16 *2101:C *2079:B 3.95724e-05
17 *2101:C *2097:A 0
18 *2101:C *2122:A2 9.61248e-05
19 *2101:C *2137:A1 0
20 *2101:C *100:23 5.4003e-05
21 *2101:C *100:34 0.000212608
22 *2101:C *157:36 0
23 *2101:C *229:32 1.34503e-05
24 *2145:C *2137:A1 0
25 *2145:C *100:23 7.06865e-05
26 *2145:C *229:90 0
27 *93:8 *2063:B 6.03947e-06
28 *93:8 *2069:A_N 0.000378888
29 *93:8 *2069:B 0.000168824
30 *93:8 *2086:B1 0
31 *93:8 *216:63 9.01848e-05
32 *93:12 *2124:A2 0.000220679
33 *93:12 *101:10 0.000294421
34 *93:12 *181:26 0.000164686
35 *93:12 *181:28 0.000360604
36 *93:12 *181:30 9.50342e-06
37 *93:56 *2148:A 1.19928e-05
38 *93:56 *2148:B 6.4201e-05
39 *93:56 *2245:A 0.000383786
40 *93:56 *229:90 0.000115453
41 *2114:B *2070:C 3.84331e-05
42 *2249:A *93:8 0.00023301
*RES
1 *2069:Y *93:8 14.395 
2 *93:8 *93:12 7.97 
3 *93:12 *2124:A1 3.6 
4 *93:12 *2070:C 11.79 
5 *93:8 *2086:A2 1.8775 
6 *2069:Y *93:56 13.855 
7 *93:56 *2145:C 4.725 
8 *93:56 *2101:C 7.92 
*END

*D_NET *94 0.00173075
*CONN
*I *2071:A2 I *D sky130_fd_sc_hd__o21ai_0
*I *2116:B I *D sky130_fd_sc_hd__nand2_1
*I *2070:X O *D sky130_fd_sc_hd__or3_1
*CAP
1 *2071:A2 0.000208717
2 *2116:B 0
3 *2070:X 0.000261837
4 *94:10 0.000470554
5 *2071:A2 *2071:A1 4.77807e-05
6 *2071:A2 *2119:A1 0.000232442
7 *2071:A2 *2186:RESET_B 0.000122315
8 *2071:A2 *95:6 4.04857e-05
9 *94:10 *2070:B 0
10 *94:10 *2186:RESET_B 2.98644e-05
11 *94:10 *2325:A 6.04361e-05
12 *94:10 *180:19 0
13 *94:10 *181:18 0
14 *94:10 *181:24 6.28843e-05
15 *2070:C *94:10 5.73739e-05
16 *2116:A *94:10 4.57506e-05
17 *2324:A *2071:A2 9.03066e-05
*RES
1 *2070:X *94:10 8.505 
2 *94:10 *2116:B 3.6 
3 *94:10 *2071:A2 8.865 
*END

*D_NET *95 0.00249561
*CONN
*I *2072:A2 I *D sky130_fd_sc_hd__a21oi_1
*I *2118:A I *D sky130_fd_sc_hd__nand2_1
*I *2071:Y O *D sky130_fd_sc_hd__o21ai_0
*CAP
1 *2072:A2 0.000229149
2 *2118:A 0.000123229
3 *2071:Y 0.000406722
4 *95:6 0.0007591
5 *2072:A2 *2072:A1 4.66108e-05
6 *2072:A2 *2171:CLK 0.000203989
7 *2072:A2 *2171:RESET_B 0
8 *2072:A2 *2185:D 3.32593e-05
9 *2072:A2 *180:30 0.000220042
10 *2072:A2 *276:12 9.63461e-05
11 *2118:A *2119:B2 2.05187e-05
12 *2118:A *276:25 3.1562e-06
13 *95:6 *2071:A1 5.83121e-06
14 *95:6 *2119:A1 3.25525e-05
15 *95:6 *276:25 4.11678e-06
16 *2071:A2 *95:6 4.04857e-05
17 *2324:A *95:6 0.000270505
*RES
1 *2071:Y *95:6 6.88 
2 *95:6 *2118:A 3.265 
3 *95:6 *2072:A2 11.345 
*END

*D_NET *96 0.000480072
*CONN
*I *2278:A I *D sky130_fd_sc_hd__dlygate4sd3_1
*I *2073:Y O *D sky130_fd_sc_hd__nor2_1
*CAP
1 *2278:A 0.000215055
2 *2073:Y 0.000215055
3 *2278:A *2073:A 0
4 *2278:A *2073:B 4.99619e-05
5 *2278:A *2346:A 0
6 *2278:A *2366:A 0
7 *2278:A *215:10 0
*RES
1 *2073:Y *2278:A 10.065 
*END

*D_NET *97 0.00226843
*CONN
*I *2075:C I *D sky130_fd_sc_hd__or3_1
*I *2089:B I *D sky130_fd_sc_hd__or3_1
*I *2126:A1 I *D sky130_fd_sc_hd__o21ai_0
*I *2074:Y O *D sky130_fd_sc_hd__nand2_1
*CAP
1 *2075:C 0.000177237
2 *2089:B 0
3 *2126:A1 0.000129014
4 *2074:Y 6.04177e-05
5 *97:14 0.000472446
6 *97:8 0.000581087
7 *2075:C *2094:B 0
8 *2075:C *229:26 3.18219e-05
9 *2075:C *229:112 7.88397e-05
10 *2126:A1 *2089:A 8.65905e-05
11 *2126:A1 *2089:C 9.07793e-05
12 *2126:A1 *101:20 1.16578e-05
13 *97:8 *2197:CLK 5.05437e-05
14 *97:14 *2074:A 0.000141606
15 *97:14 *2094:B 0
16 *97:14 *216:59 0.000160658
17 *97:14 *229:12 0.00012533
18 *97:14 *229:26 7.04021e-05
*RES
1 *2074:Y *97:8 4.395 
2 *97:8 *97:14 8.705 
3 *97:14 *2126:A1 4.39 
4 *97:14 *2089:B 1.6 
5 *97:8 *2075:C 7.02 
*END

*D_NET *98 0.00202718
*CONN
*I *2118:B I *D sky130_fd_sc_hd__nand2_1
*I *2076:A2 I *D sky130_fd_sc_hd__o21ai_0
*I *2075:X O *D sky130_fd_sc_hd__or3_1
*CAP
1 *2118:B 0.000232137
2 *2076:A2 6.2339e-05
3 *2075:X 0.000173906
4 *98:10 0.000468383
5 *2076:A2 *2076:B1 0.00012657
6 *2076:A2 *181:76 5.78094e-05
7 *2076:A2 *181:80 4.99619e-05
8 *2118:B *2076:B1 4.75948e-05
9 *2118:B *2094:B 0.000108322
10 *2118:B *2267:A 0.000121657
11 *2118:B *2365:A 7.23237e-05
12 *2118:B *180:19 7.01056e-05
13 *2118:B *336:10 4.83032e-05
14 *98:10 *2070:A 0
15 *98:10 *2075:A 1.83847e-05
16 *98:10 *2094:B 0.000315139
17 *98:10 *180:10 4.61658e-05
18 *98:10 *180:19 8.08153e-06
*RES
1 *2075:X *98:10 7.725 
2 *98:10 *2076:A2 5.43 
3 *98:10 *2118:B 9.825 
*END

*D_NET *99 0.00242716
*CONN
*I *2077:A2 I *D sky130_fd_sc_hd__a21oi_1
*I *2120:B1 I *D sky130_fd_sc_hd__o21ai_0
*I *2076:Y O *D sky130_fd_sc_hd__o21ai_0
*CAP
1 *2077:A2 0.000342504
2 *2120:B1 0.000206341
3 *2076:Y 0.000207099
4 *99:6 0.000755944
5 *2077:A2 *2077:A1 4.77769e-05
6 *2077:A2 *2077:B1 2.69443e-06
7 *2077:A2 *2121:A2 1.88602e-05
8 *2077:A2 *2186:D 9.37846e-05
9 *2077:A2 *276:25 0.00016369
10 *2077:A2 *276:33 8.41015e-06
11 *2120:B1 *2094:B 0
12 *2120:B1 *181:80 6.54766e-05
13 *99:6 *2076:B1 4.99619e-05
14 *99:6 *181:80 0.000108357
15 *4:10 *2077:A2 0.000293666
16 *4:10 *2120:B1 6.25916e-05
*RES
1 *2076:Y *99:6 4.465 
2 *99:6 *2120:B1 8.465 
3 *99:6 *2077:A2 13.895 
*END

*D_NET *100 0.00542115
*CONN
*I *2120:A2 I *D sky130_fd_sc_hd__o21ai_0
*I *2080:A3 I *D sky130_fd_sc_hd__o31ai_1
*I *2148:B I *D sky130_fd_sc_hd__nand2_1
*I *2137:A2 I *D sky130_fd_sc_hd__o21ai_0
*I *2078:Y O *D sky130_fd_sc_hd__nand2_1
*CAP
1 *2120:A2 0.000521257
2 *2080:A3 0
3 *2148:B 9.79708e-05
4 *2137:A2 0.000477217
5 *2078:Y 8.98732e-05
6 *100:34 0.000726616
7 *100:23 0.000355622
8 *100:6 0.000619382
9 *2120:A2 *2094:A 0.000119242
10 *2120:A2 *2094:B 8.52883e-05
11 *2120:A2 *2120:A1 0.000110155
12 *2120:A2 *2121:B2 1.10085e-05
13 *2120:A2 *2123:B1 0
14 *2120:A2 *2219:A 0.000135939
15 *2120:A2 *181:86 0
16 *2120:A2 *181:127 0
17 *2120:A2 *188:10 0.00023937
18 *2137:A2 *2138:A3 3.25831e-05
19 *2137:A2 *2146:A2 5.35969e-06
20 *2137:A2 *2196:CLK 0.000130057
21 *2148:B *2148:A 0.000420937
22 *2148:B *229:90 0.000234973
23 *100:6 *2245:A 8.58007e-05
24 *100:23 *229:73 0
25 *100:23 *229:90 3.39151e-05
26 *100:34 *2097:A 0
27 *100:34 *124:61 0
28 *100:34 *157:23 0.000155928
29 *100:34 *181:86 0
30 *100:34 *188:10 4.05358e-05
31 *100:34 *222:71 5.85076e-05
32 *100:34 *222:84 0
33 *2101:C *100:23 5.4003e-05
34 *2101:C *100:34 0.000212608
35 *2145:B *2137:A2 0.000232111
36 *2145:C *100:23 7.06865e-05
37 *2216:A *2137:A2 0
38 *93:56 *2148:B 6.4201e-05
*RES
1 *2078:Y *100:6 2.74 
2 *100:6 *2137:A2 12.5 
3 *100:6 *100:23 3.38 
4 *100:23 *2148:B 7.5 
5 *100:23 *100:34 4.95 
6 *100:34 *2080:A3 3.6 
7 *100:34 *2120:A2 14.1 
*END

*D_NET *101 0.00871801
*CONN
*I *2122:A2 I *D sky130_fd_sc_hd__o21ai_0
*I *2083:A3 I *D sky130_fd_sc_hd__o31ai_1
*I *2124:A2 I *D sky130_fd_sc_hd__o21ai_0
*I *2086:A3 I *D sky130_fd_sc_hd__o31ai_1
*I *2126:A2 I *D sky130_fd_sc_hd__o21ai_0
*I *2089:C I *D sky130_fd_sc_hd__or3_1
*I *2079:Y O *D sky130_fd_sc_hd__nand2_1
*CAP
1 *2122:A2 0.000410207
2 *2083:A3 6.7306e-05
3 *2124:A2 5.30632e-05
4 *2086:A3 3.99824e-05
5 *2126:A2 0
6 *2089:C 0.000167878
7 *2079:Y 0.00170493
8 *101:20 0.000263006
9 *101:10 0.000233453
10 *101:8 0.000151406
11 *101:6 0.00136202
12 *2083:A3 *2124:B1 4.05674e-06
13 *2089:C *2089:A 8.65905e-05
14 *2089:C *108:10 4.66108e-05
15 *2122:A2 *2079:A 5.83121e-06
16 *2122:A2 *2097:B 0.000316134
17 *2122:A2 *2102:A2 0
18 *2122:A2 *2122:B1 4.19884e-05
19 *2122:A2 *2133:B 0
20 *2122:A2 *114:8 0.000117832
21 *2122:A2 *117:8 0.000306155
22 *2122:A2 *181:100 9.2741e-05
23 *2122:A2 *229:32 6.07575e-06
24 *101:6 *229:30 0.00116552
25 *101:6 *229:32 0.000380059
26 *101:10 *181:30 2.05661e-05
27 *101:20 *181:30 5.20968e-05
28 *2070:C *2124:A2 9.50342e-06
29 *2083:A2 *2083:A3 1.54111e-05
30 *2083:A2 *101:6 0.000218692
31 *2101:C *2122:A2 9.61248e-05
32 *2114:B *2124:A2 0.000231571
33 *2114:B *101:10 0.000338226
34 *2114:B *101:20 9.54399e-05
35 *2126:A1 *2089:C 9.07793e-05
36 *2126:A1 *101:20 1.16578e-05
37 *93:12 *2124:A2 0.000220679
38 *93:12 *101:10 0.000294421
*RES
1 *2079:Y *101:6 19.3 
2 *101:6 *101:8 2 
3 *101:8 *101:10 3.93 
4 *101:10 *101:20 4.295 
5 *101:20 *2089:C 5.095 
6 *101:20 *2126:A2 1.6 
7 *101:10 *2086:A3 4.05 
8 *101:8 *2124:A2 6.255 
9 *101:6 *2083:A3 2.395 
10 *2079:Y *2122:A2 16.62 
*END

*D_NET *102 0.00288477
*CONN
*I *2122:B1 I *D sky130_fd_sc_hd__o21ai_0
*I *2082:A2 I *D sky130_fd_sc_hd__a21oi_1
*I *2080:Y O *D sky130_fd_sc_hd__o31ai_1
*CAP
1 *2122:B1 6.70645e-05
2 *2082:A2 0.000665654
3 *2080:Y 0.000230362
4 *102:6 0.00096308
5 *2082:A2 *2097:A 4.60182e-05
6 *2082:A2 *2097:B 4.82919e-05
7 *2082:A2 *2123:A1 0
8 *2082:A2 *2135:A 0.000160635
9 *2122:B1 *2097:B 1.52184e-05
10 *2122:B1 *179:12 4.82863e-05
11 *102:6 *2123:A1 0.000233004
12 *102:6 *181:100 4.07182e-05
13 *2082:A1 *2082:A2 4.99619e-05
14 *2097:C *2082:A2 7.00889e-06
15 *2097:C *102:6 4.35348e-05
16 *2122:A1 *2122:B1 3.90833e-05
17 *2122:A2 *2122:B1 4.19884e-05
18 *2220:A *2122:B1 0.00011379
19 *2316:A *2082:A2 2.11084e-05
20 *42:178 *2082:A2 4.99619e-05
*RES
1 *2080:Y *102:6 5.5 
2 *102:6 *2082:A2 12.01 
3 *102:6 *2122:B1 7.685 
*END

*D_NET *103 0.000269998
*CONN
*I *2315:A I *D sky130_fd_sc_hd__dlygate4sd3_1
*I *2081:Y O *D sky130_fd_sc_hd__nor2_1
*CAP
1 *2315:A 3.78924e-05
2 *2081:Y 3.78924e-05
3 *2315:A *2081:A 7.4027e-05
4 *42:178 *2315:A 0.000120186
*RES
1 *2081:Y *2315:A 8.58 
*END

*D_NET *104 0.00121945
*CONN
*I *2085:A2 I *D sky130_fd_sc_hd__a21oi_1
*I *2124:B1 I *D sky130_fd_sc_hd__o21ai_0
*I *2083:Y O *D sky130_fd_sc_hd__o31ai_1
*CAP
1 *2085:A2 0.000272447
2 *2124:B1 9.45074e-05
3 *2083:Y 0
4 *104:4 0.000366954
5 *2085:A2 *2083:B1 4.66742e-05
6 *2085:A2 *196:6 0.000204034
7 *2124:B1 *278:21 4.49585e-05
8 *2124:B1 *278:32 1.94723e-05
9 *2083:A3 *2124:B1 4.05674e-06
10 *2114:B *2124:B1 0.000166346
*RES
1 *2083:Y *104:4 1.6 
2 *104:4 *2124:B1 7.94 
3 *104:4 *2085:A2 6.205 
*END

*D_NET *105 0.000265741
*CONN
*I *2301:A I *D sky130_fd_sc_hd__dlygate4sd3_1
*I *2084:Y O *D sky130_fd_sc_hd__nor2_1
*CAP
1 *2301:A 6.95853e-05
2 *2084:Y 6.95853e-05
3 *2301:A *2084:B 0.00012657
*RES
1 *2084:Y *2301:A 4.685 
*END

*D_NET *106 0.00244425
*CONN
*I *2088:A2 I *D sky130_fd_sc_hd__a21oi_1
*I *2126:B1 I *D sky130_fd_sc_hd__o21ai_0
*I *2086:Y O *D sky130_fd_sc_hd__o31ai_1
*CAP
1 *2088:A2 0.000841703
2 *2126:B1 8.34163e-05
3 *2086:Y 0.000925119
4 *2088:A2 *2086:B1 0.000160635
5 *2088:A2 *2189:RESET_B 7.95799e-05
6 *2088:A2 *272:6 4.89295e-05
7 *2088:A2 *277:84 0.000125939
8 *2088:A2 *279:90 1.47347e-05
9 *2126:B1 *2086:B1 2.65814e-06
10 *2126:B1 *2127:B2 7.06865e-05
11 *2126:B1 *278:10 2.60908e-05
12 *2114:B *2126:B1 6.47594e-05
*RES
1 *2086:Y *2126:B1 9.03 
2 *2086:Y *2088:A2 13.79 
*END

*D_NET *107 0.00135112
*CONN
*I *2307:A I *D sky130_fd_sc_hd__dlygate4sd3_1
*I *2087:Y O *D sky130_fd_sc_hd__nor2_1
*CAP
1 *2307:A 0.000553999
2 *2087:Y 0.000553999
3 *2307:A *2062:B1 0.00019608
4 *2307:A *2087:A 0
5 *2307:A *2088:B1 0
6 *2307:A *2175:D 4.7043e-05
7 *2307:A *2273:A 0
8 *2307:A *2349:A 0
9 *2307:A *281:114 0
*RES
1 *2087:Y *2307:A 15.525 
*END

*D_NET *108 0.00334157
*CONN
*I *2090:B I *D sky130_fd_sc_hd__nand2_1
*I *2129:A3 I *D sky130_fd_sc_hd__a32oi_1
*I *2089:X O *D sky130_fd_sc_hd__or3_1
*CAP
1 *2090:B 0.000233829
2 *2129:A3 0.000277066
3 *2089:X 0.000567733
4 *108:10 0.00107863
5 *2090:B *2090:A 6.68315e-05
6 *2090:B *2190:RESET_B 0.00015737
7 *2090:B *273:6 8.8266e-05
8 *2129:A3 *2128:B 3.00381e-05
9 *2129:A3 *2129:A1 4.82863e-05
10 *2129:A3 *2190:CLK 0
11 *2129:A3 *192:8 0
12 *2129:A3 *192:14 0
13 *108:10 *2061:A1 0.000265202
14 *108:10 *2130:B1 0.000247567
15 *108:10 *2224:A 0
16 *108:10 *2341:A 0
17 *108:10 *192:8 0
18 *108:10 *279:73 0
19 *2089:C *108:10 4.66108e-05
20 *2114:B *108:10 0.00016961
21 *2129:A2 *2129:A3 0
22 *2225:A *2129:A3 4.39734e-05
23 *2225:A *108:10 2.05583e-05
*RES
1 *2089:X *108:10 15.63 
2 *108:10 *2129:A3 7.785 
3 *108:10 *2090:B 8.31 
*END

*D_NET *109 0.000354631
*CONN
*I *2092:A2 I *D sky130_fd_sc_hd__a21oi_1
*I *2090:Y O *D sky130_fd_sc_hd__nand2_1
*CAP
1 *2092:A2 9.55976e-05
2 *2090:Y 9.55976e-05
3 *2092:A2 *2090:A 5.83121e-06
4 *2092:A2 *2092:B1 3.18219e-05
5 *2092:A2 *178:110 0.00011379
6 *2092:A2 *273:6 1.19928e-05
*RES
1 *2090:Y *2092:A2 9.03 
*END

*D_NET *110 0.000890395
*CONN
*I *2298:A I *D sky130_fd_sc_hd__dlygate4sd3_1
*I *2091:Y O *D sky130_fd_sc_hd__nor2_1
*CAP
1 *2298:A 0.000382683
2 *2091:Y 0.000382683
3 *2298:A *2091:A 3.51072e-05
4 *2298:A *2091:B 4.6368e-06
5 *2298:A *2369:A 8.52845e-05
6 *2298:A *281:29 0
*RES
1 *2091:Y *2298:A 12.9 
*END

*D_NET *111 0.000352686
*CONN
*I *2284:A I *D sky130_fd_sc_hd__dlygate4sd3_1
*I *2093:Y O *D sky130_fd_sc_hd__nor2_1
*CAP
1 *2284:A 0.0001187
2 *2093:Y 0.0001187
3 *2284:A *2093:A 6.61674e-05
4 *2284:A *2351:A 0
5 *2284:A *2370:A 4.91189e-05
6 *2284:A *253:10 0
*RES
1 *2093:Y *2284:A 9.375 
*END

*D_NET *112 0.000696083
*CONN
*I *2095:A2 I *D sky130_fd_sc_hd__o21ai_0
*I *2094:Y O *D sky130_fd_sc_hd__nand2_1
*CAP
1 *2095:A2 0.000187552
2 *2094:Y 0.000187552
3 *2095:A2 *2366:A 1.01155e-05
4 *2095:A2 *181:127 0.000310864
*RES
1 *2094:Y *2095:A2 11.01 
*END

*D_NET *113 0.00191578
*CONN
*I *2131:A I *D sky130_fd_sc_hd__nand2_1
*I *2096:A2 I *D sky130_fd_sc_hd__a21oi_1
*I *2095:Y O *D sky130_fd_sc_hd__o21ai_0
*CAP
1 *2131:A 0
2 *2096:A2 0.000385137
3 *2095:Y 0.000247293
4 *113:8 0.00063243
5 *2096:A2 *2177:D 3.45588e-05
6 *2096:A2 *2178:RESET_B 6.75901e-05
7 *2096:A2 *2191:D 5.01076e-05
8 *2096:A2 *2192:RESET_B 4.89395e-05
9 *2096:A2 *2371:A 0
10 *2096:A2 *275:10 0
11 *2096:A2 *282:107 1.71928e-05
12 *2096:A2 *282:109 5.68786e-05
13 *2096:A2 *282:111 7.5745e-05
14 *113:8 *2132:A1 0.000196699
15 *113:8 *2132:B2 1.48096e-05
16 *113:8 *2192:RESET_B 2.86691e-05
17 *2320:A *2096:A2 5.97306e-05
*RES
1 *2095:Y *113:8 5.77 
2 *113:8 *2096:A2 13.43 
3 *113:8 *2131:A 1.6 
*END

*D_NET *114 0.00211623
*CONN
*I *2098:A2 I *D sky130_fd_sc_hd__o21ai_0
*I *2131:B I *D sky130_fd_sc_hd__nand2_1
*I *2097:X O *D sky130_fd_sc_hd__or3_1
*CAP
1 *2098:A2 0.000159987
2 *2131:B 5.23557e-05
3 *2097:X 0.000453112
4 *114:8 0.000665455
5 *2098:A2 *2098:A1 9.32375e-05
6 *2098:A2 *2133:B 0
7 *2098:A2 *2134:A2 1.32102e-05
8 *2098:A2 *2134:B1 0.000196699
9 *2098:A2 *275:10 0.000130964
10 *2131:B *2192:RESET_B 0.000160342
11 *2131:B *275:10 1.79174e-05
12 *114:8 *2133:B 0
13 *114:8 *2173:RESET_B 5.51158e-05
14 *114:8 *282:113 0
15 *2122:A1 *114:8 0
16 *2122:A2 *114:8 0.000117832
*RES
1 *2097:X *114:8 11.1 
2 *114:8 *2131:B 5.085 
3 *114:8 *2098:A2 7.83 
*END

*D_NET *115 0.00176074
*CONN
*I *2133:A I *D sky130_fd_sc_hd__nand2_1
*I *2100:A2 I *D sky130_fd_sc_hd__a21oi_1
*I *2098:Y O *D sky130_fd_sc_hd__o21ai_0
*CAP
1 *2133:A 8.60562e-05
2 *2100:A2 0.00029546
3 *2098:Y 0.000102946
4 *115:10 0.000484462
5 *2100:A2 *2100:B1 4.89395e-05
6 *2100:A2 *331:10 5.83121e-06
7 *2133:A *2133:B 2.51585e-05
8 *2133:A *2134:B2 7.58382e-05
9 *2133:A *2178:RESET_B 2.75229e-05
10 *2133:A *2289:A 0
11 *2133:A *179:87 9.63979e-05
12 *2133:A *179:96 4.82919e-05
13 *115:10 *2098:B1 4.864e-05
14 *115:10 *2133:B 7.28465e-06
15 *115:10 *2134:A2 8.64599e-05
16 *115:10 *2134:B1 4.90291e-05
17 *115:10 *2134:B2 2.3228e-05
18 *115:10 *179:87 0.000101947
19 *115:10 *331:10 8.06756e-05
20 *2290:A *2100:A2 6.65733e-05
*RES
1 *2098:Y *115:10 6.795 
2 *115:10 *2100:A2 8.535 
3 *115:10 *2133:A 6.45 
*END

*D_NET *116 0.00132474
*CONN
*I *2289:A I *D sky130_fd_sc_hd__dlygate4sd3_1
*I *2099:Y O *D sky130_fd_sc_hd__nor2_1
*CAP
1 *2289:A 0.000451241
2 *2099:Y 0.000451241
3 *2289:A *2178:D 9.30717e-05
4 *2289:A *2352:A 0
5 *2289:A *179:87 9.14516e-05
6 *2133:A *2289:A 0
7 *2290:A *2289:A 7.97704e-05
8 *42:204 *2289:A 7.00889e-06
9 *42:215 *2289:A 0.00015095
*RES
1 *2099:Y *2289:A 15.18 
*END

*D_NET *117 0.00345468
*CONN
*I *2133:B I *D sky130_fd_sc_hd__nand2_1
*I *2102:A2 I *D sky130_fd_sc_hd__o21ai_0
*I *2101:X O *D sky130_fd_sc_hd__or3_1
*CAP
1 *2133:B 0.000908324
2 *2102:A2 2.50456e-05
3 *2101:X 0.000381523
4 *117:8 0.00131489
5 *2102:A2 *2097:B 0
6 *2102:A2 *2135:B 2.45182e-05
7 *2133:B *2098:B1 2.4002e-05
8 *2133:B *2134:B2 0.000243629
9 *2133:B *2135:B 4.19884e-05
10 *2133:B *2173:D 0
11 *2133:B *2191:CLK 0
12 *2133:B *2321:A 6.47357e-05
13 *2133:B *2371:A 0
14 *2133:B *179:16 0
15 *2133:B *179:70 0
16 *2133:B *179:74 0
17 *2133:B *179:109 0
18 *2133:B *331:10 9.23517e-06
19 *117:8 *181:100 7.8192e-05
20 *2098:A2 *2133:B 0
21 *2122:A2 *2102:A2 0
22 *2122:A2 *2133:B 0
23 *2122:A2 *117:8 0.000306155
24 *2133:A *2133:B 2.51585e-05
25 *114:8 *2133:B 0
26 *115:10 *2133:B 7.28465e-06
*RES
1 *2101:X *117:8 8.535 
2 *117:8 *2102:A2 4.215 
3 *117:8 *2133:B 19.515 
*END

*D_NET *118 0.00311861
*CONN
*I *2135:A I *D sky130_fd_sc_hd__nand2_1
*I *2104:A2 I *D sky130_fd_sc_hd__a21oi_1
*I *2102:Y O *D sky130_fd_sc_hd__o21ai_0
*CAP
1 *2135:A 0.000161748
2 *2104:A2 0.000368104
3 *2102:Y 0.000168447
4 *118:6 0.000698298
5 *2104:A2 *2104:B1 4.99619e-05
6 *2104:A2 *2179:D 0.000228202
7 *2104:A2 *2193:RESET_B 0.000272978
8 *2104:A2 *2215:A 0
9 *2104:A2 *2304:A 0.0003849
10 *2104:A2 *2361:A 4.60584e-05
11 *2135:A *2082:B1 0
12 *2135:A *2215:A 1.71013e-05
13 *2135:A *179:16 0.000206817
14 *118:6 *2102:B1 0.000121437
15 *118:6 *2136:A1 8.65961e-05
16 *2082:A2 *2135:A 0.000160635
17 *2103:B *2104:A2 4.89295e-05
18 *2305:A *2104:A2 0
19 *42:101 *2104:A2 9.83993e-05
*RES
1 *2102:Y *118:6 4.465 
2 *118:6 *2104:A2 14.945 
3 *118:6 *2135:A 9.485 
*END

*D_NET *119 0.00111241
*CONN
*I *2304:A I *D sky130_fd_sc_hd__dlygate4sd3_1
*I *2103:Y O *D sky130_fd_sc_hd__nor2_1
*CAP
1 *2304:A 9.30347e-05
2 *2103:Y 9.30347e-05
3 *2304:A *2361:A 0.000497437
4 *2103:B *2304:A 4.40028e-05
5 *2104:A2 *2304:A 0.0003849
*RES
1 *2103:Y *2304:A 7.79 
*END

*D_NET *120 0.00345435
*CONN
*I *2135:B I *D sky130_fd_sc_hd__nand2_1
*I *2106:A2 I *D sky130_fd_sc_hd__o21ai_0
*I *2105:Y O *D sky130_fd_sc_hd__nand4b_1
*CAP
1 *2135:B 0.000295081
2 *2106:A2 0.000179698
3 *2105:Y 0.000638352
4 *120:10 0.00111313
5 *2106:A2 *2106:A1 0
6 *2106:A2 *2108:A2 4.77807e-05
7 *2106:A2 *2136:B2 7.87426e-05
8 *2106:A2 *2137:B1 7.50406e-05
9 *2106:A2 *2139:A2 7.57772e-05
10 *2135:B *2097:B 0
11 *2135:B *2106:A1 0
12 *2135:B *2136:B2 0.00059722
13 *2135:B *179:16 0
14 *120:10 *2105:B 4.00541e-06
15 *120:10 *2137:A1 0.000131069
16 *120:10 *124:31 0.000151942
17 *2102:A2 *2135:B 2.45182e-05
18 *2133:B *2135:B 4.19884e-05
*RES
1 *2105:Y *120:10 11.565 
2 *120:10 *2106:A2 7.395 
3 *120:10 *2135:B 11.1 
*END

*D_NET *121 0.00254675
*CONN
*I *2137:B1 I *D sky130_fd_sc_hd__o21ai_0
*I *2108:A2 I *D sky130_fd_sc_hd__a21oi_1
*I *2106:Y O *D sky130_fd_sc_hd__o21ai_0
*CAP
1 *2137:B1 0.000187646
2 *2108:A2 0.000388519
3 *2106:Y 0
4 *121:4 0.000576166
5 *2108:A2 *2136:B1 0.000157944
6 *2108:A2 *2295:A 0.000378329
7 *2108:A2 *282:202 5.42446e-05
8 *2137:B1 *2106:A1 0
9 *2137:B1 *2136:B1 0.000346161
10 *2137:B1 *2138:A3 0.000158655
11 *2137:B1 *2196:RESET_B 1.14192e-05
12 *2106:A2 *2108:A2 4.77807e-05
13 *2106:A2 *2137:B1 7.50406e-05
14 *2107:B *2108:A2 0.000118685
15 *2216:A *2137:B1 0
16 *42:97 *2108:A2 4.61595e-05
*RES
1 *2106:Y *121:4 1.6 
2 *121:4 *2108:A2 14.24 
3 *121:4 *2137:B1 10.7 
*END

*D_NET *122 0.00142733
*CONN
*I *2295:A I *D sky130_fd_sc_hd__dlygate4sd3_1
*I *2107:Y O *D sky130_fd_sc_hd__nor2_1
*CAP
1 *2295:A 0.000431946
2 *2107:Y 0.000431946
3 *2295:A *2107:A 2.69217e-05
4 *2295:A *2136:A1 0
5 *2295:A *2136:B1 0
6 *2295:A *2180:CLK 0.000117698
7 *2107:B *2295:A 4.04857e-05
8 *2108:A2 *2295:A 0.000378329
*RES
1 *2107:Y *2295:A 13.515 
*END

*D_NET *123 0.000739683
*CONN
*I *2138:B1 I *D sky130_fd_sc_hd__a311oi_1
*I *2112:B I *D sky130_fd_sc_hd__or2_0
*I *2111:Y O *D sky130_fd_sc_hd__a21boi_0
*CAP
1 *2138:B1 0.000182304
2 *2112:B 0
3 *2111:Y 7.43339e-05
4 *123:8 0.000256637
5 *2138:B1 *2111:B1_N 3.83041e-05
6 *2138:B1 *2138:A3 7.63883e-05
7 *2138:B1 *2139:B1 9.50342e-06
8 *2138:B1 *124:14 0
9 *2138:B1 *165:27 8.53113e-06
10 *123:8 *2111:A1 5.4155e-06
11 *123:8 *2111:B1_N 8.8266e-05
12 *2138:A2 *2138:B1 0
*RES
1 *2111:Y *123:8 3.1 
2 *123:8 *2112:B 1.6 
3 *123:8 *2138:B1 8.705 
*END

*D_NET *124 0.0124638
*CONN
*I *2134:A2 I *D sky130_fd_sc_hd__a22o_1
*I *2132:A2 I *D sky130_fd_sc_hd__a22o_1
*I *2121:A2 I *D sky130_fd_sc_hd__a22o_1
*I *2123:A2 I *D sky130_fd_sc_hd__a22o_1
*I *2139:A2 I *D sky130_fd_sc_hd__a21oi_1
*I *2136:A2 I *D sky130_fd_sc_hd__a22o_1
*I *2339:A I *D sky130_fd_sc_hd__buf_4
*I *2112:X O *D sky130_fd_sc_hd__or2_0
*CAP
1 *2134:A2 0.000672308
2 *2132:A2 0
3 *2121:A2 0.000638351
4 *2123:A2 5.00042e-05
5 *2139:A2 0.00026676
6 *2136:A2 8.80738e-05
7 *2339:A 9.72538e-06
8 *2112:X 0.000157009
9 *124:93 0.000715619
10 *124:76 0.000900933
11 *124:61 0.000551062
12 *124:31 0.000673424
13 *124:25 0.000932697
14 *124:14 0.000499054
15 *2121:A2 *276:25 1.88602e-05
16 *2121:A2 *276:33 0.00103135
17 *2134:A2 *2098:A1 0.000489108
18 *2134:A2 *2134:A1 0.000272899
19 *2134:A2 *2134:B1 0.000439856
20 *2134:A2 *179:87 3.43054e-05
21 *2134:A2 *282:111 0.000125625
22 *2139:A2 *2106:B1 6.97275e-05
23 *2139:A2 *2136:A1 1.34361e-05
24 *2139:A2 *2136:B1 9.22565e-05
25 *2139:A2 *2136:B2 8.53113e-06
26 *2139:A2 *2180:D 2.41307e-05
27 *2339:A *2138:A1 4.82919e-05
28 *2339:A *2138:C1 4.82863e-05
29 *124:14 *2140:C 8.8266e-05
30 *124:14 *219:33 1.7678e-05
31 *124:25 *2138:A3 0
32 *124:25 *2196:CLK 7.21004e-05
33 *124:25 *2196:D 0.000115945
34 *124:25 *219:33 0.0003119
35 *124:31 *2137:A1 6.97118e-05
36 *124:61 *2097:A 3.69334e-05
37 *124:61 *2123:B1 1.80446e-05
38 *124:61 *2137:A1 1.01661e-05
39 *124:61 *2148:A 9.68709e-05
40 *124:61 *2196:CLK 0.000130881
41 *124:61 *157:36 5.93674e-05
42 *124:61 *219:33 0.000127416
43 *124:76 *2123:B1 0.000493186
44 *124:76 *2187:D 0
45 *124:76 *2187:RESET_B 5.39961e-05
46 *124:76 *276:46 4.38511e-05
47 *124:76 *282:113 0.000198197
48 *124:93 *2134:B1 2.21606e-05
49 *124:93 *276:46 0.000123902
50 *124:93 *282:111 2.98644e-05
51 *124:93 *282:113 0.000114669
52 *2077:A2 *2121:A2 1.88602e-05
53 *2098:A2 *2134:A2 1.32102e-05
54 *2106:A2 *2139:A2 7.57772e-05
55 *2122:A1 *2123:A2 4.1977e-05
56 *2122:A1 *124:76 6.72338e-05
57 *2138:A2 *124:14 9.37731e-05
58 *2138:B1 *124:14 0
59 *2145:B *124:61 0.00021717
60 *2216:A *2136:A2 5.00685e-05
61 *2216:A *124:31 0.000309618
62 *2322:A *2134:A2 8.41384e-05
63 *4:10 *2121:A2 0
64 *42:191 *2134:A2 0
65 *88:26 *2123:A2 8.53113e-06
66 *88:26 *124:61 0.000138292
67 *100:34 *124:61 0
68 *115:10 *2134:A2 8.64599e-05
69 *120:10 *124:31 0.000151942
*RES
1 *2112:X *124:14 6.585 
2 *124:14 *2339:A 4.05 
3 *124:14 *124:25 8.01 
4 *124:25 *124:31 8.675 
5 *124:31 *2136:A2 3.67 
6 *124:31 *2139:A2 10.925 
7 *124:25 *124:61 8.9025 
8 *124:61 *2123:A2 4.5375 
9 *124:61 *124:76 6.675 
10 *124:76 *2121:A2 6.50197 
11 *124:76 *124:93 1.7625 
12 *124:93 *2132:A2 3.6 
13 *124:93 *2134:A2 19.975 
*END

*D_NET *125 0.00785878
*CONN
*I *2136:B1 I *D sky130_fd_sc_hd__a22o_1
*I *2338:A I *D sky130_fd_sc_hd__clkbuf_2
*I *2113:Y O *D sky130_fd_sc_hd__nor3b_1
*CAP
1 *2136:B1 0.00160639
2 *2338:A 0.000237408
3 *2113:Y 0.000373439
4 *125:14 0.00221724
5 *2136:B1 *2041:A 0.000658111
6 *2136:B1 *2136:A1 9.50342e-06
7 *2136:B1 *2146:B1 8.23457e-05
8 *2136:B1 *2196:RESET_B 0.000410128
9 *2136:B1 *2244:A 8.30853e-06
10 *2136:B1 *161:8 0.000284345
11 *2136:B1 *213:8 0.000156774
12 *2136:B1 *222:16 1.5996e-05
13 *2136:B1 *222:37 2.93436e-05
14 *2136:B1 *282:409 6.95334e-05
15 *2338:A *2257:A 0.000180997
16 *125:14 *2042:A 5.16348e-05
17 *125:14 *2051:B 1.37635e-05
18 *125:14 *2129:B1 0.000197338
19 *125:14 *2247:A 0.000217872
20 *125:14 *159:38 0.000173324
21 *125:14 *161:8 0.000184598
22 *125:14 *162:14 0
23 *2108:A2 *2136:B1 0.000157944
24 *2129:A2 *125:14 8.40269e-05
25 *2137:B1 *2136:B1 0.000346161
26 *2139:A2 *2136:B1 9.22565e-05
27 *2295:A *2136:B1 0
*RES
1 *2113:Y *125:14 12.54 
2 *125:14 *2338:A 7.5 
3 *125:14 *2136:B1 37.49 
*END

*D_NET *126 0.000577994
*CONN
*I *2115:B2 I *D sky130_fd_sc_hd__a22o_1
*I *2114:Y O *D sky130_fd_sc_hd__nand2_1
*CAP
1 *2115:B2 0.000126656
2 *2114:Y 0.000126656
3 *2115:B2 *278:10 9.10613e-05
4 *2115:B2 *279:73 9.12494e-06
5 *2115:B2 *279:90 0.000103464
6 *2114:A *2115:B2 0.000121032
*RES
1 *2114:Y *2115:B2 9.72 
*END

*D_NET *127 0.000424143
*CONN
*I *2117:B2 I *D sky130_fd_sc_hd__a22o_1
*I *2116:Y O *D sky130_fd_sc_hd__nand2_1
*CAP
1 *2117:B2 9.87396e-05
2 *2116:Y 9.87396e-05
3 *2117:B2 *2119:A2 8.65091e-05
4 *2117:B2 *2186:RESET_B 5.83121e-06
5 *2117:B2 *2337:A 4.90227e-05
6 *2117:B2 *276:12 8.53011e-05
*RES
1 *2116:Y *2117:B2 5.735 
*END

*D_NET *128 0.000209831
*CONN
*I *2119:B2 I *D sky130_fd_sc_hd__a22o_1
*I *2118:Y O *D sky130_fd_sc_hd__nand2_1
*CAP
1 *2119:B2 5.03053e-05
2 *2118:Y 5.03053e-05
3 *2119:B2 *276:25 8.87018e-05
4 *2118:A *2119:B2 2.05187e-05
*RES
1 *2118:Y *2119:B2 4.355 
*END

*D_NET *129 0.000238265
*CONN
*I *2121:B2 I *D sky130_fd_sc_hd__a22o_1
*I *2120:Y O *D sky130_fd_sc_hd__o21ai_0
*CAP
1 *2121:B2 6.26776e-05
2 *2120:Y 6.26776e-05
3 *2121:B2 *2094:B 8.51879e-05
4 *2121:B2 *2121:B1 1.67131e-05
5 *2120:A2 *2121:B2 1.10085e-05
*RES
1 *2120:Y *2121:B2 4.61 
*END

*D_NET *130 0.00113383
*CONN
*I *2123:B2 I *D sky130_fd_sc_hd__a22o_1
*I *2122:Y O *D sky130_fd_sc_hd__o21ai_0
*CAP
1 *2123:B2 0.000302722
2 *2122:Y 0.000302722
3 *2123:B2 *2123:B1 0.00013521
4 *2123:B2 *179:12 0.000341879
5 *2123:B2 *188:10 5.12942e-05
*RES
1 *2122:Y *2123:B2 12.045 
*END

*D_NET *131 0.000115577
*CONN
*I *2125:B2 I *D sky130_fd_sc_hd__a22o_1
*I *2124:Y O *D sky130_fd_sc_hd__o21ai_0
*CAP
1 *2125:B2 5.0589e-05
2 *2124:Y 5.0589e-05
3 *2065:A2 *2125:B2 1.4399e-05
*RES
1 *2124:Y *2125:B2 4.01 
*END

*D_NET *132 0.000475761
*CONN
*I *2127:B2 I *D sky130_fd_sc_hd__a22o_1
*I *2126:Y O *D sky130_fd_sc_hd__o21ai_0
*CAP
1 *2127:B2 0.000117961
2 *2126:Y 0.000117961
3 *2127:B2 *278:10 0.000141599
4 *2114:B *2127:B2 2.75538e-05
5 *2126:B1 *2127:B2 7.06865e-05
*RES
1 *2126:Y *2127:B2 9.63 
*END

*D_NET *133 0.00140417
*CONN
*I *2224:A I *D sky130_fd_sc_hd__dlygate4sd3_1
*I *2128:Y O *D sky130_fd_sc_hd__nand2_1
*CAP
1 *2224:A 0.00043505
2 *2128:Y 0.00043505
3 *2224:A *2092:A1 0
4 *2224:A *2129:A1 1.16578e-05
5 *2224:A *2190:RESET_B 0
6 *2224:A *192:8 0.000185411
7 *2224:A *192:14 0.000269626
8 *2224:A *279:73 6.73751e-05
9 *108:10 *2224:A 0
*RES
1 *2128:Y *2224:A 14.835 
*END

*D_NET *134 0.000734533
*CONN
*I *2130:A3 I *D sky130_fd_sc_hd__o31ai_1
*I *2129:Y O *D sky130_fd_sc_hd__a32oi_1
*CAP
1 *2130:A3 0.000174172
2 *2129:Y 0.000174172
3 *2130:A3 *2128:B 0.000116165
4 *2130:A3 *2129:B1 2.8185e-05
5 *2130:A3 *2129:B2 0.000124007
6 *2130:A3 *280:16 0.000117832
*RES
1 *2129:Y *2130:A3 10.41 
*END

*D_NET *135 0.000619347
*CONN
*I *2132:B2 I *D sky130_fd_sc_hd__a22o_1
*I *2131:Y O *D sky130_fd_sc_hd__nand2_1
*CAP
1 *2132:B2 0.000233411
2 *2131:Y 0.000233411
3 *2132:B2 *2132:A1 5.24182e-05
4 *2132:B2 *2192:RESET_B 8.52972e-05
5 *113:8 *2132:B2 1.48096e-05
*RES
1 *2131:Y *2132:B2 6.335 
*END

*D_NET *136 0.00206655
*CONN
*I *2134:B2 I *D sky130_fd_sc_hd__a22o_1
*I *2133:Y O *D sky130_fd_sc_hd__nand2_1
*CAP
1 *2134:B2 0.000558255
2 *2133:Y 0.000558255
3 *2134:B2 *2134:A1 0.000494457
4 *2134:B2 *2134:B1 4.38662e-05
5 *2134:B2 *331:10 6.90254e-05
6 *2133:A *2134:B2 7.58382e-05
7 *2133:B *2134:B2 0.000243629
8 *115:10 *2134:B2 2.3228e-05
*RES
1 *2133:Y *2134:B2 16.695 
*END

*D_NET *137 0.00140011
*CONN
*I *2136:B2 I *D sky130_fd_sc_hd__a22o_1
*I *2135:Y O *D sky130_fd_sc_hd__nand2_1
*CAP
1 *2136:B2 0.000224551
2 *2135:Y 0.000224551
3 *2136:B2 *2136:A1 0.000148
4 *2136:B2 *2268:A 0.000118513
5 *2136:B2 *179:16 0
6 *2106:A2 *2136:B2 7.87426e-05
7 *2135:B *2136:B2 0.00059722
8 *2139:A2 *2136:B2 8.53113e-06
*RES
1 *2135:Y *2136:B2 14.955 
*END

*D_NET *138 0.00172034
*CONN
*I *2138:A3 I *D sky130_fd_sc_hd__a311oi_1
*I *2137:Y O *D sky130_fd_sc_hd__o21ai_0
*CAP
1 *2138:A3 0.000397516
2 *2137:Y 0.000397516
3 *2138:A3 *2138:A1 8.8266e-05
4 *2138:A3 *2138:C1 0.0001249
5 *2138:A3 *2139:B1 9.19978e-05
6 *2138:A3 *2196:CLK 6.45648e-05
7 *2138:A3 *2196:RESET_B 0.000287951
8 *2137:A2 *2138:A3 3.25831e-05
9 *2137:B1 *2138:A3 0.000158655
10 *2138:B1 *2138:A3 7.63883e-05
11 *2216:A *2138:A3 0
12 *124:25 *2138:A3 0
*RES
1 *2137:Y *2138:A3 17.115 
*END

*D_NET *139 0.000764951
*CONN
*I *2139:B1 I *D sky130_fd_sc_hd__a21oi_1
*I *2138:Y O *D sky130_fd_sc_hd__a311oi_1
*CAP
1 *2139:B1 0.000286194
2 *2138:Y 0.000286194
3 *2139:B1 *2139:A1 0
4 *2139:B1 *2196:RESET_B 9.10613e-05
5 *2138:A3 *2139:B1 9.19978e-05
6 *2138:B1 *2139:B1 9.50342e-06
*RES
1 *2138:Y *2139:B1 12.195 
*END

*D_NET *140 0.00472648
*CONN
*I *2144:B I *D sky130_fd_sc_hd__nor2_1
*I *2147:A2 I *D sky130_fd_sc_hd__a21oi_1
*I *2149:A1 I *D sky130_fd_sc_hd__a21oi_1
*I *2142:B1 I *D sky130_fd_sc_hd__o21ai_0
*I *2143:A2 I *D sky130_fd_sc_hd__o22a_1
*I *2150:B1 I *D sky130_fd_sc_hd__o21ai_0
*I *2140:Y O *D sky130_fd_sc_hd__nor3_1
*CAP
1 *2144:B 0.000139123
2 *2147:A2 0
3 *2149:A1 6.71954e-05
4 *2142:B1 0.000166709
5 *2143:A2 0
6 *2150:B1 3.05381e-05
7 *2140:Y 0.000159453
8 *140:62 0.000582535
9 *140:43 0.000801964
10 *140:26 0.000484237
11 *140:19 0.000191155
12 *140:6 0.000354976
13 *2142:B1 *2143:B1 4.8035e-05
14 *2142:B1 *2143:B2 4.59969e-05
15 *2142:B1 *159:8 1.6054e-06
16 *2144:B *2078:B 1.13797e-05
17 *2144:B *2105:A_N 2.97802e-05
18 *2144:B *2147:B1 3.82965e-06
19 *2144:B *2149:B1 8.52883e-05
20 *2144:B *2245:A 4.41506e-05
21 *2144:B *160:14 5.18317e-06
22 *2144:B *229:90 1.96856e-05
23 *2149:A1 *2149:B1 8.52883e-05
24 *2150:B1 *2150:A2 4.87465e-06
25 *140:6 *2140:A 2.75229e-05
26 *140:6 *2151:B1 3.21652e-05
27 *140:19 *2143:A1 1.38187e-05
28 *140:19 *2151:B1 3.26519e-06
29 *140:43 *2143:A1 0
30 *140:43 *2143:B2 3.59531e-06
31 *140:43 *2195:D 6.31104e-05
32 *140:43 *219:16 0
33 *140:43 *222:16 0.000537841
34 *140:62 *2069:A_N 5.83121e-06
35 *140:62 *2105:A_N 3.11771e-06
36 *140:62 *2149:B1 0.000119632
37 *140:62 *2245:A 6.07575e-06
38 *140:62 *160:14 3.52639e-05
39 *140:62 *222:16 0.000168142
40 *140:62 *222:37 0.000132363
41 *140:62 *222:58 0.000176647
42 *2249:A *2149:A1 3.51072e-05
43 *4:10 *140:43 0
*RES
1 *2140:Y *140:6 3.43 
2 *140:6 *2150:B1 2.215 
3 *140:6 *140:19 2.295 
4 *140:19 *2143:A2 1.6 
5 *140:19 *140:26 0.45 
6 *140:26 *2142:B1 4.43125 
7 *140:26 *140:43 8.48 
8 *140:43 *2149:A1 5.085 
9 *140:43 *140:62 12.07 
10 *140:62 *2147:A2 3.6 
11 *140:62 *2144:B 6.27 
*END

*D_NET *141 0.000230401
*CONN
*I *2146:A1 I *D sky130_fd_sc_hd__a21oi_1
*I *2141:Y O *D sky130_fd_sc_hd__nor3_1
*CAP
1 *2146:A1 7.78714e-05
2 *2141:Y 7.78714e-05
3 *2146:A1 *2146:A2 9.12494e-06
4 *2146:A1 *177:109 6.55328e-05
5 *2146:A1 *219:33 0
6 *2146:A1 *222:16 0
*RES
1 *2141:Y *2146:A1 8.835 
*END

*D_NET *142 0.000261302
*CONN
*I *2143:B1 I *D sky130_fd_sc_hd__o22a_1
*I *2142:Y O *D sky130_fd_sc_hd__o21ai_0
*CAP
1 *2143:B1 6.97844e-05
2 *2142:Y 6.97844e-05
3 *2143:B1 *2143:B2 2.47682e-05
4 *2142:B1 *2143:B1 4.8035e-05
5 *2243:A *2143:B1 4.89295e-05
*RES
1 *2142:Y *2143:B1 5.15375 
*END

*D_NET *143 0.00320953
*CONN
*I *2245:A I *D sky130_fd_sc_hd__dlygate4sd3_1
*I *2144:Y O *D sky130_fd_sc_hd__nor2_1
*CAP
1 *2245:A 0.000461037
2 *2144:Y 0.000461037
3 *2245:A *2041:A 0.000230037
4 *2245:A *2069:A_N 0.00015785
5 *2245:A *2069:B 0.00043298
6 *2245:A *2078:B 4.11718e-05
7 *2245:A *2149:B1 3.4584e-05
8 *2245:A *2197:D 4.82863e-05
9 *2245:A *2197:RESET_B 4.5783e-05
10 *2245:A *160:14 4.77719e-05
11 *2245:A *175:47 1.44259e-05
12 *2245:A *213:58 0.000158298
13 *2245:A *282:409 0.000230037
14 *2144:B *2245:A 4.41506e-05
15 *2249:A *2245:A 0.000326414
16 *93:56 *2245:A 0.000383786
17 *100:6 *2245:A 8.58007e-05
18 *140:62 *2245:A 6.07575e-06
*RES
1 *2144:Y *2245:A 21.51 
*END

*D_NET *144 0.00118314
*CONN
*I *2146:A2 I *D sky130_fd_sc_hd__a21oi_1
*I *2145:Y O *D sky130_fd_sc_hd__nand3_1
*CAP
1 *2146:A2 0.000390084
2 *2145:Y 0.000390084
3 *2146:A2 *2105:C 7.63883e-05
4 *2146:A2 *2137:A1 0
5 *2146:A2 *2144:A 8.59296e-05
6 *2146:A2 *2149:B1 0.000194867
7 *2146:A2 *219:33 0
8 *2137:A2 *2146:A2 5.35969e-06
9 *2146:A1 *2146:A2 9.12494e-06
10 *2246:A *2146:A2 3.12983e-05
*RES
1 *2145:Y *2146:A2 15.15 
*END

*D_NET *145 0.00236729
*CONN
*I *2149:B1 I *D sky130_fd_sc_hd__a21oi_1
*I *2147:Y O *D sky130_fd_sc_hd__a21oi_1
*CAP
1 *2149:B1 0.000681051
2 *2147:Y 0.000681051
3 *2149:B1 *2078:B 8.46717e-05
4 *2149:B1 *2105:A_N 0.000159964
5 *2149:B1 *2105:C 7.23533e-05
6 *2149:B1 *2144:A 0.000118527
7 *2149:B1 *2244:A 0
8 *2149:B1 *160:14 2.01504e-05
9 *2144:B *2149:B1 8.52883e-05
10 *2146:A2 *2149:B1 0.000194867
11 *2149:A1 *2149:B1 8.52883e-05
12 *2245:A *2149:B1 3.4584e-05
13 *2246:A *2149:B1 2.98644e-05
14 *140:62 *2149:B1 0.000119632
*RES
1 *2147:Y *2149:B1 20.19 
*END

*D_NET *146 0.00123517
*CONN
*I *2248:A I *D sky130_fd_sc_hd__dlygate4sd3_1
*I *2148:Y O *D sky130_fd_sc_hd__nand2_1
*CAP
1 *2248:A 0.000319709
2 *2148:Y 0.000319709
3 *2248:A *2105:B 0.000198051
4 *2248:A *2148:A 4.36422e-06
5 *2248:A *2197:CLK 3.17915e-05
6 *2248:A *216:30 0.000196381
7 *4:10 *2248:A 0.000162448
8 *88:18 *2248:A 2.71912e-06
*RES
1 *2148:Y *2248:A 13.59 
*END

*D_NET *147 0.00155468
*CONN
*I *2151:B1 I *D sky130_fd_sc_hd__a32o_1
*I *2150:Y O *D sky130_fd_sc_hd__o21ai_0
*CAP
1 *2151:B1 0.000307229
2 *2150:Y 0.000307229
3 *2151:B1 *2043:A 0.000111939
4 *2151:B1 *2141:B 4.43871e-06
5 *2151:B1 *2143:B2 0.000137578
6 *2151:B1 *177:99 0
7 *2151:B1 *177:109 0.000376038
8 *2151:B1 *207:48 9.50342e-06
9 *2151:B1 *207:57 0.000231564
10 *2151:B1 *282:351 2.24829e-05
11 *2057:C1 *2151:B1 1.12459e-05
12 *140:6 *2151:B1 3.21652e-05
13 *140:19 *2151:B1 3.26519e-06
*RES
1 *2150:Y *2151:B1 15.2775 
*END

*D_NET *148 0.00390769
*CONN
*I *2158:C I *D sky130_fd_sc_hd__nand3_1
*I *2163:B2 I *D sky130_fd_sc_hd__o22a_1
*I *2161:A2 I *D sky130_fd_sc_hd__a21oi_1
*I *2154:A2 I *D sky130_fd_sc_hd__a21bo_1
*I *2153:C I *D sky130_fd_sc_hd__nand3_1
*I *2160:A I *D sky130_fd_sc_hd__nor2_1
*I *2152:X O *D sky130_fd_sc_hd__or2_0
*CAP
1 *2158:C 0.000124259
2 *2163:B2 0.000169055
3 *2161:A2 0
4 *2154:A2 6.23202e-05
5 *2153:C 0
6 *2160:A 2.9853e-05
7 *2152:X 0.000106156
8 *148:50 0.000308302
9 *148:43 1.49881e-05
10 *148:20 0.000212422
11 *148:14 0.000329514
12 *148:10 0.000190781
13 *2154:A2 *2154:A1 0.000155608
14 *2154:A2 *2252:A 4.66108e-05
15 *2154:A2 *150:14 1.77575e-05
16 *2158:C *2046:B 4.98712e-05
17 *2158:C *2156:A 0.000164874
18 *2158:C *2156:B 4.82863e-05
19 *2158:C *2161:A1 4.66108e-05
20 *2158:C *164:10 0.000203178
21 *2158:C *203:29 0.000111295
22 *2163:B2 *2046:B 8.75256e-05
23 *2163:B2 *2161:A1 4.82863e-05
24 *2163:B2 *2163:A1 4.00541e-06
25 *2163:B2 *327:21 2.75229e-05
26 *148:10 *2161:A1 5.16348e-05
27 *148:10 *164:10 0
28 *148:10 *177:18 7.26629e-05
29 *148:14 *2161:A1 3.21271e-05
30 *148:14 *151:10 0.000115336
31 *148:14 *177:18 0.00017389
32 *148:20 *2153:A 7.93568e-06
33 *148:20 *2153:B 1.76702e-05
34 *148:20 *2160:B 0.000330832
35 *148:20 *2161:B1 4.98471e-05
36 *148:20 *151:10 0.00014523
37 *148:20 *177:18 0.000173792
38 *148:20 *177:22 0.00017765
39 *148:50 *2163:A1 0
*RES
1 *2152:X *148:10 5.685 
2 *148:10 *148:14 2.595 
3 *148:14 *148:20 8.33 
4 *148:20 *2160:A 2.05 
5 *148:20 *2153:C 1.6 
6 *148:14 *2154:A2 5.085 
7 *148:10 *148:43 2 
8 *148:43 *2161:A2 1.6 
9 *148:43 *148:50 0.36 
10 *148:50 *2163:B2 4.48 
11 *148:50 *2158:C 5.5 
*END

*D_NET *149 0.000369962
*CONN
*I *2155:B1 I *D sky130_fd_sc_hd__o21ai_0
*I *2153:Y O *D sky130_fd_sc_hd__nand3_1
*CAP
1 *2155:B1 8.38518e-05
2 *2153:Y 8.38518e-05
3 *2155:B1 *2153:A 1.1392e-05
4 *2155:B1 *2155:A2 0.000118513
5 *2155:B1 *2159:A2 7.23533e-05
6 *2155:B1 *198:14 0
*RES
1 *2153:Y *2155:B1 9.03 
*END

*D_NET *150 0.00213062
*CONN
*I *2159:A1 I *D sky130_fd_sc_hd__o21ai_0
*I *2155:A2 I *D sky130_fd_sc_hd__o21ai_0
*I *2154:X O *D sky130_fd_sc_hd__a21bo_1
*CAP
1 *2159:A1 0
2 *2155:A2 0.000139259
3 *2154:X 0.000340581
4 *150:14 0.000479839
5 *2155:A2 *2159:A2 4.72071e-05
6 *2155:A2 *2159:B1 5.98004e-06
7 *150:14 *2153:B 9.34295e-05
8 *150:14 *2154:A1 2.62602e-05
9 *150:14 *2159:B1 0.000262149
10 *150:14 *2160:B 6.14227e-05
11 *150:14 *2252:A 2.49909e-05
12 *150:14 *2317:A 0.000181361
13 *150:14 *151:10 7.27704e-06
14 *150:14 *280:55 2.86691e-05
15 *2154:A2 *150:14 1.77575e-05
16 *2155:B1 *2155:A2 0.000118513
17 *2229:A *2155:A2 0.000262467
18 *2229:A *150:14 3.34579e-05
*RES
1 *2154:X *150:14 11.955 
2 *150:14 *2155:A2 7.59 
3 *150:14 *2159:A1 3.6 
*END

*D_NET *151 0.00228258
*CONN
*I *2162:A2 I *D sky130_fd_sc_hd__a21boi_0
*I *2160:B I *D sky130_fd_sc_hd__nor2_1
*I *2156:Y O *D sky130_fd_sc_hd__nor2_1
*CAP
1 *2162:A2 0.000147568
2 *2160:B 0.000232519
3 *2156:Y 0.000166657
4 *151:10 0.000546744
5 *2160:B *2161:B1 2.75145e-05
6 *2160:B *2317:A 2.68037e-05
7 *2162:A2 *2162:A1 4.89395e-05
8 *2162:A2 *2164:CLK 8.23457e-05
9 *151:10 *2046:B 4.66826e-05
10 *151:10 *2161:A1 9.34309e-05
11 *151:10 *2317:A 5.00391e-05
12 *2229:A *2160:B 0.000153238
13 *148:14 *151:10 0.000115336
14 *148:20 *2160:B 0.000330832
15 *148:20 *151:10 0.00014523
16 *150:14 *2160:B 6.14227e-05
17 *150:14 *151:10 7.27704e-06
*RES
1 *2156:Y *151:10 7.56 
2 *151:10 *2160:B 9.735 
3 *151:10 *2162:A2 5.775 
*END

*D_NET *152 0.000612932
*CONN
*I *2159:A2 I *D sky130_fd_sc_hd__o21ai_0
*I *2157:X O *D sky130_fd_sc_hd__xor2_1
*CAP
1 *2159:A2 0.000202232
2 *2157:X 0.000202232
3 *2159:A2 *2155:A1 7.35729e-05
4 *2159:A2 *2157:B 5.83121e-06
5 *2159:A2 *2159:B1 9.50342e-06
6 *2159:A2 *198:14 0
7 *2155:A2 *2159:A2 4.72071e-05
8 *2155:B1 *2159:A2 7.23533e-05
*RES
1 *2157:X *2159:A2 10.41 
*END

*D_NET *153 0.000254988
*CONN
*I *2234:A I *D sky130_fd_sc_hd__dlygate4sd3_1
*I *2158:Y O *D sky130_fd_sc_hd__nand3_1
*CAP
1 *2234:A 6.61929e-05
2 *2158:Y 6.61929e-05
3 *2234:A *2158:B 9.27434e-05
4 *2234:A *280:51 2.98587e-05
*RES
1 *2158:Y *2234:A 8.58 
*END

*D_NET *154 0.00153096
*CONN
*I *2161:B1 I *D sky130_fd_sc_hd__a21oi_1
*I *2160:Y O *D sky130_fd_sc_hd__nor2_1
*CAP
1 *2161:B1 0.000370025
2 *2160:Y 0.000370025
3 *2161:B1 *2054:A 0
4 *2161:B1 *2163:B1 0
5 *2161:B1 *2252:A 0.000287193
6 *2161:B1 *177:18 0.000181757
7 *2161:B1 *177:22 2.4002e-05
8 *2161:B1 *327:21 0.000220592
9 *2160:B *2161:B1 2.75145e-05
10 *148:20 *2161:B1 4.98471e-05
*RES
1 *2160:Y *2161:B1 15.96 
*END

*D_NET *155 0.000176662
*CONN
*I *2163:A2 I *D sky130_fd_sc_hd__o22a_1
*I *2161:Y O *D sky130_fd_sc_hd__a21oi_1
*CAP
1 *2163:A2 6.43169e-05
2 *2161:Y 6.43169e-05
3 *2163:A2 *2046:B 2.05056e-05
4 *2163:A2 *327:21 2.75229e-05
*RES
1 *2161:Y *2163:A2 3.995 
*END

*D_NET *156 0.000535552
*CONN
*I *2163:B1 I *D sky130_fd_sc_hd__o22a_1
*I *2162:Y O *D sky130_fd_sc_hd__a21boi_0
*CAP
1 *2163:B1 0.000118266
2 *2162:Y 0.000118266
3 *2163:B1 *2162:B1_N 3.89366e-05
4 *2163:B1 *207:10 0.000142845
5 *2163:B1 *327:21 0.00011724
6 *2161:B1 *2163:B1 0
*RES
1 *2162:Y *2163:B1 10.875 
*END

*D_NET *157 0.00341869
*CONN
*I *2097:A I *D sky130_fd_sc_hd__or3_1
*I *2101:A I *D sky130_fd_sc_hd__or3_1
*I *2137:A1 I *D sky130_fd_sc_hd__o21ai_0
*I *2079:A I *D sky130_fd_sc_hd__nand2_1
*I *2036:Y O *D sky130_fd_sc_hd__inv_1
*CAP
1 *2097:A 0.000325222
2 *2101:A 0
3 *2137:A1 0.000288538
4 *2079:A 2.67293e-05
5 *2036:Y 1.46251e-05
6 *157:36 0.000420616
7 *157:23 0.000521792
8 *157:6 0.000179214
9 *2079:A *229:32 2.49909e-05
10 *2097:A *2123:A1 0
11 *2097:A *181:100 0.000233004
12 *2137:A1 *2144:A 0
13 *2137:A1 *2148:A 0.000181369
14 *2137:A1 *219:33 0.000183738
15 *157:6 *229:32 1.00207e-05
16 *157:23 *2148:A 0.00023468
17 *157:23 *222:58 0
18 *157:23 *222:71 4.43871e-06
19 *2082:A2 *2097:A 4.60182e-05
20 *2097:C *2097:A 2.16833e-05
21 *2101:C *2097:A 0
22 *2101:C *2137:A1 0
23 *2101:C *157:36 0
24 *2122:A2 *2079:A 5.83121e-06
25 *2145:C *2137:A1 0
26 *2146:A2 *2137:A1 0
27 *88:18 *157:23 0.000232999
28 *100:34 *2097:A 0
29 *100:34 *157:23 0.000155928
30 *120:10 *2137:A1 0.000131069
31 *124:31 *2137:A1 6.97118e-05
32 *124:61 *2097:A 3.69334e-05
33 *124:61 *2137:A1 1.01661e-05
34 *124:61 *157:36 5.93674e-05
*RES
1 *2036:Y *157:6 1.8775 
2 *157:6 *2079:A 2.05 
3 *157:6 *157:23 10.065 
4 *157:23 *2137:A1 10.215 
5 *157:23 *157:36 1.89 
6 *157:36 *2101:A 3.6 
7 *157:36 *2097:A 8.46 
*END

*D_NET *158 8.59226e-05
*CONN
*I *2231:A I *D sky130_fd_sc_hd__dlygate4sd3_1
*I *2037:Y O *D sky130_fd_sc_hd__inv_1
*CAP
1 *2231:A 2.83613e-05
2 *2037:Y 2.83613e-05
3 *2231:A *2106:B1 2.92e-05
*RES
1 *2037:Y *2231:A 3.8225 
*END

*D_NET *159 0.00297813
*CONN
*I *2130:A1 I *D sky130_fd_sc_hd__o31ai_1
*I *2113:A I *D sky130_fd_sc_hd__nor3b_1
*I *2042:A I *D sky130_fd_sc_hd__nor2_2
*I *2142:A2 I *D sky130_fd_sc_hd__o21ai_0
*I *2150:A1 I *D sky130_fd_sc_hd__o21ai_0
*I *2038:Y O *D sky130_fd_sc_hd__inv_1
*CAP
1 *2130:A1 6.05306e-05
2 *2113:A 0
3 *2042:A 6.39729e-05
4 *2142:A2 0
5 *2150:A1 0.000265808
6 *2038:Y 0
7 *159:49 6.05306e-05
8 *159:38 0.000318663
9 *159:8 0.00034556
10 *159:4 0.000334443
11 *2042:A *2051:B 9.16315e-05
12 *2042:A *2247:A 6.18754e-05
13 *2130:A1 *2113:B 4.40832e-05
14 *2130:A1 *279:41 8.40213e-05
15 *2130:A1 *280:16 2.28491e-05
16 *2150:A1 *2142:A1 1.88602e-05
17 *2150:A1 *2143:A1 8.41131e-05
18 *2150:A1 *222:16 9.5799e-06
19 *159:8 *219:16 8.70223e-05
20 *159:38 *2038:A 2.61518e-05
21 *159:38 *2051:A 4.21973e-05
22 *159:38 *2051:B 7.89914e-05
23 *159:38 *2113:B 1.79483e-05
24 *159:38 *219:6 2.05056e-05
25 *159:38 *219:16 2.20394e-05
26 *2113:C_N *2130:A1 5.4155e-06
27 *2129:A2 *2130:A1 0.000191736
28 *2142:B1 *159:8 1.6054e-06
29 *42:27 *2150:A1 0.000393039
30 *125:14 *2042:A 5.16348e-05
31 *125:14 *159:38 0.000173324
*RES
1 *2038:Y *159:4 1.6 
2 *159:4 *159:8 1.6725 
3 *159:8 *2150:A1 7.68567 
4 *159:8 *2142:A2 1.6 
5 *159:4 *159:38 6.8375 
6 *159:38 *2042:A 5.49 
7 *159:38 *159:49 2 
8 *159:49 *2113:A 1.6 
9 *159:49 *2130:A1 3.865 
*END

*D_NET *160 0.00200489
*CONN
*I *2147:A1 I *D sky130_fd_sc_hd__a21oi_1
*I *2078:B I *D sky130_fd_sc_hd__nand2_1
*I *2039:Y O *D sky130_fd_sc_hd__nor2_1
*CAP
1 *2147:A1 0
2 *2078:B 3.74637e-05
3 *2039:Y 0.000485563
4 *160:14 0.000523027
5 *2078:B *2069:A_N 1.20052e-05
6 *160:14 *2147:B1 8.53113e-06
7 *160:14 *216:8 0.000233459
8 *160:14 *216:30 0.000343153
9 *160:14 *222:58 0.000116098
10 *2144:B *2078:B 1.13797e-05
11 *2144:B *160:14 5.18317e-06
12 *2149:B1 *2078:B 8.46717e-05
13 *2149:B1 *160:14 2.01504e-05
14 *2245:A *2078:B 4.11718e-05
15 *2245:A *160:14 4.77719e-05
16 *140:62 *160:14 3.52639e-05
*RES
1 *2039:Y *160:14 12.965 
2 *160:14 *2078:B 3.115 
3 *160:14 *2147:A1 1.6 
*END

*D_NET *161 0.00984157
*CONN
*I *2094:B I *D sky130_fd_sc_hd__nand2_1
*I *2150:A2 I *D sky130_fd_sc_hd__o21ai_0
*I *2129:B1 I *D sky130_fd_sc_hd__a32oi_1
*I *2040:Y O *D sky130_fd_sc_hd__nor3_1
*CAP
1 *2094:B 0.00143344
2 *2150:A2 0.000785172
3 *2129:B1 0.000307636
4 *2040:Y 0
5 *161:8 0.00141394
6 *161:6 0.00175457
7 *2094:B *2041:A 0
8 *2094:B *2070:A 0
9 *2094:B *2074:A 7.18452e-06
10 *2094:B *2074:B 5.9339e-05
11 *2094:B *2076:B1 9.37731e-05
12 *2094:B *2094:A 4.66108e-05
13 *2094:B *2120:A1 8.41307e-05
14 *2094:B *2121:A1 1.85451e-05
15 *2094:B *2121:B1 7.22354e-05
16 *2094:B *2256:A 0.000117832
17 *2094:B *2366:A 5.06382e-06
18 *2094:B *213:92 1.94805e-05
19 *2094:B *213:103 6.23462e-05
20 *2094:B *216:59 0
21 *2094:B *222:84 2.37828e-05
22 *2094:B *229:112 0
23 *2094:B *281:175 8.40213e-05
24 *2129:B1 *2042:B 0.000587143
25 *2129:B1 *2128:B 0.000160641
26 *2129:B1 *2129:B2 0.000130453
27 *2129:B1 *2247:A 0.000172453
28 *2129:B1 *279:41 1.79536e-05
29 *2129:B1 *280:16 7.21296e-06
30 *2150:A2 *2143:A1 0.00055476
31 *2150:A2 *2143:B2 0
32 *2150:A2 *222:16 2.44626e-05
33 *161:8 *2041:A 0
34 *161:8 *2042:B 0.000106344
35 *161:8 *173:11 0
36 *2064:C *2094:B 0
37 *2075:C *2094:B 0
38 *2118:B *2094:B 0.000108322
39 *2120:A2 *2094:B 8.52883e-05
40 *2120:B1 *2094:B 0
41 *2121:B2 *2094:B 8.51879e-05
42 *2130:A3 *2129:B1 2.8185e-05
43 *2136:B1 *161:8 0.000284345
44 *2150:B1 *2150:A2 4.87465e-06
45 *2326:A *2094:B 0.000279787
46 *42:27 *2150:A2 0.000117975
47 *88:12 *2094:B 0
48 *97:14 *2094:B 0
49 *98:10 *2094:B 0.000315139
50 *125:14 *2129:B1 0.000197338
51 *125:14 *161:8 0.000184598
*RES
1 *2040:Y *161:6 3.6 
2 *161:6 *161:8 7.3725 
3 *161:8 *2129:B1 13.4175 
4 *161:8 *2150:A2 8.78543 
5 *161:6 *2094:B 31.9 
*END

*D_NET *162 0.00469919
*CONN
*I *2061:A2 I *D sky130_fd_sc_hd__o21ai_0
*I *2257:A I *D sky130_fd_sc_hd__dlygate4sd3_1
*I *2051:B I *D sky130_fd_sc_hd__nand2_1
*I *2041:X O *D sky130_fd_sc_hd__or4_1
*CAP
1 *2061:A2 0.000581952
2 *2257:A 0.000256923
3 *2051:B 0.000291097
4 *2041:X 0.000164815
5 *162:14 0.000678886
6 *162:10 0.000877633
7 *2051:B *2051:A 0.000374859
8 *2051:B *2113:B 1.92979e-05
9 *2051:B *213:20 0.000144208
10 *2061:A2 *2061:A1 0.000317119
11 *2257:A *2242:A 3.03775e-05
12 *162:10 *2041:A 0.000114061
13 *162:10 *2195:RESET_B 2.0794e-05
14 *162:10 *2197:RESET_B 5.08478e-05
15 *162:10 *2242:A 0.000149088
16 *162:10 *213:88 4.82863e-05
17 *162:14 *2195:RESET_B 2.57991e-05
18 *162:14 *2242:A 0.000136809
19 *162:14 *213:20 0
20 *2042:A *2051:B 9.16315e-05
21 *2114:A *2061:A2 2.21074e-05
22 *2338:A *2257:A 0.000180997
23 *4:34 *2051:B 2.88436e-05
24 *125:14 *2051:B 1.37635e-05
25 *125:14 *162:14 0
26 *159:38 *2051:B 7.89914e-05
*RES
1 *2041:X *162:10 7.47 
2 *162:10 *162:14 2.85 
3 *162:14 *2051:B 11.61 
4 *162:14 *2257:A 8.19 
5 *162:10 *2061:A2 13.365 
*END

*D_NET *163 0.000160817
*CONN
*I *2240:A I *D sky130_fd_sc_hd__dlygate4sd3_1
*I *2043:Y O *D sky130_fd_sc_hd__nor2_1
*CAP
1 *2240:A 4.68501e-05
2 *2043:Y 4.68501e-05
3 *42:45 *2240:A 4.66108e-05
4 *85:12 *2240:A 2.05056e-05
*RES
1 *2043:Y *2240:A 3.995 
*END

*D_NET *164 0.0026579
*CONN
*I *2151:A3 I *D sky130_fd_sc_hd__a32o_1
*I *2050:B I *D sky130_fd_sc_hd__nand2_1
*I *2253:A I *D sky130_fd_sc_hd__dlygate4sd3_1
*I *2046:Y O *D sky130_fd_sc_hd__nor3b_1
*CAP
1 *2151:A3 8.68326e-05
2 *2050:B 0.000184973
3 *2253:A 3.4408e-05
4 *2046:Y 0.000234536
5 *164:21 0.000427182
6 *164:10 0.000424321
7 *2050:B *2201:CLK 0.000124895
8 *2050:B *2236:A 3.00381e-05
9 *2050:B *177:16 0.000457696
10 *2050:B *207:48 0.000270409
11 *2151:A3 *2151:A2 9.50342e-06
12 *2151:A3 *2152:A 0
13 *2151:A3 *207:48 5.73518e-05
14 *164:10 *2052:A 0
15 *164:10 *2152:B 0
16 *164:21 *2052:A 0
17 *164:21 *2152:A 0
18 *2158:C *164:10 0.000203178
19 *2237:A *2050:B 2.59835e-05
20 *2238:A *164:10 0
21 *81:22 *2253:A 8.65961e-05
22 *148:10 *164:10 0
*RES
1 *2046:Y *164:10 7.065 
2 *164:10 *2253:A 4.395 
3 *164:10 *164:21 2.4 
4 *164:21 *2050:B 9.24 
5 *164:21 *2151:A3 5.235 
*END

*D_NET *165 0.00193461
*CONN
*I *2140:C I *D sky130_fd_sc_hd__nor3_1
*I *2112:A I *D sky130_fd_sc_hd__or2_0
*I *2254:A I *D sky130_fd_sc_hd__dlygate4sd3_1
*I *2047:Y O *D sky130_fd_sc_hd__nor2b_1
*CAP
1 *2140:C 0.000153257
2 *2112:A 0
3 *2254:A 6.42435e-05
4 *2047:Y 0.00013876
5 *165:27 0.000253822
6 *165:14 0.000303569
7 *2140:C *2111:B1_N 8.49205e-05
8 *2140:C *2140:A 0.000307049
9 *2254:A *211:12 3.45588e-05
10 *165:14 *2111:A1 0
11 *165:14 *2151:A2 0.000121437
12 *165:14 *210:20 4.66108e-05
13 *165:14 *210:24 2.92496e-05
14 *165:14 *210:50 0.000116728
15 *165:14 *211:12 9.30717e-05
16 *165:27 *2111:A1 0
17 *165:27 *210:50 9.05377e-05
18 *2138:B1 *165:27 8.53113e-06
19 *124:14 *2140:C 8.8266e-05
*RES
1 *2047:Y *165:14 7.185 
2 *165:14 *2254:A 4.74 
3 *165:14 *165:27 4.145 
4 *165:27 *2112:A 1.6 
5 *165:27 *2140:C 5.155 
*END

*D_NET *166 9.94017e-05
*CONN
*I *2274:A I *D sky130_fd_sc_hd__dlygate4sd3_1
*I *2164:Q O *D sky130_fd_sc_hd__dfrtp_1
*CAP
1 *2274:A 1.23867e-05
2 *2164:Q 1.23867e-05
3 *2274:A *2164:RESET_B 5.83121e-06
4 *2274:A *280:28 4.77757e-05
5 *2274:A *282:365 2.10214e-05
*RES
1 *2164:Q *2274:A 3.65 
*END

*D_NET *167 0.00032363
*CONN
*I *2233:A I *D sky130_fd_sc_hd__dlygate4sd3_1
*I *2165:Q O *D sky130_fd_sc_hd__dfrtp_1
*CAP
1 *2233:A 0.000161815
2 *2165:Q 0.000161815
3 *2233:A *2373:A 0
*RES
1 *2165:Q *2233:A 9.375 
*END

*D_NET *168 0.000938789
*CONN
*I *2252:A I *D sky130_fd_sc_hd__dlygate4sd3_1
*I *2166:Q O *D sky130_fd_sc_hd__dfrtp_1
*CAP
1 *2252:A 0.000132353
2 *2166:Q 0.000132353
3 *2252:A *2165:CLK 5.83121e-06
4 *2252:A *2166:CLK 2.69153e-05
5 *2252:A *177:18 0.000145732
6 *2252:A *177:22 0.000136809
7 *2154:A2 *2252:A 4.66108e-05
8 *2161:B1 *2252:A 0.000287193
9 *150:14 *2252:A 2.49909e-05
*RES
1 *2166:Q *2252:A 11.52 
*END

*D_NET *169 0.000888763
*CONN
*I *2242:A I *D sky130_fd_sc_hd__dlygate4sd3_1
*I *2195:Q O *D sky130_fd_sc_hd__dfrtp_1
*CAP
1 *2242:A 0.000143299
2 *2195:Q 0.000143299
3 *2242:A *2195:RESET_B 0.000285891
4 *2257:A *2242:A 3.03775e-05
5 *162:10 *2242:A 0.000149088
6 *162:14 *2242:A 0.000136809
*RES
1 *2195:Q *2242:A 11.415 
*END

*D_NET *170 0.000365568
*CONN
*I *2244:A I *D sky130_fd_sc_hd__dlygate4sd3_1
*I *2196:Q O *D sky130_fd_sc_hd__dfrtp_1
*CAP
1 *2244:A 9.7073e-05
2 *2196:Q 9.7073e-05
3 *2244:A *222:37 6.98643e-05
4 *2244:A *222:58 4.54719e-05
5 *2244:A *282:409 4.77769e-05
6 *2136:B1 *2244:A 8.30853e-06
7 *2149:B1 *2244:A 0
*RES
1 *2196:Q *2244:A 9.03 
*END

*D_NET *171 0.000245437
*CONN
*I *2256:A I *D sky130_fd_sc_hd__dlygate4sd3_1
*I *2197:Q O *D sky130_fd_sc_hd__dfrtp_1
*CAP
1 *2256:A 4.07155e-05
2 *2197:Q 4.07155e-05
3 *2256:A *2074:A 3.39069e-05
4 *2256:A *216:59 1.22676e-05
5 *2094:B *2256:A 0.000117832
*RES
1 *2197:Q *2256:A 8.58 
*END

*D_NET *172 0.00066645
*CONN
*I *2250:A I *D sky130_fd_sc_hd__dlygate4sd3_1
*I *2198:Q O *D sky130_fd_sc_hd__dfrtp_1
*CAP
1 *2250:A 0.000241515
2 *2198:Q 0.000241515
3 *2250:A *2129:B2 7.47457e-05
4 *2250:A *175:11 4.19967e-05
5 *2250:A *280:16 1.83847e-05
6 *85:19 *2250:A 4.82919e-05
*RES
1 *2198:Q *2250:A 10.86 
*END

*D_NET *173 0.000457422
*CONN
*I *2204:A I *D sky130_fd_sc_hd__clkbuf_16
*I *2210:X O *D sky130_fd_sc_hd__clkbuf_16
*CAP
1 *2204:A 0
2 *2210:X 0
3 *173:11 0.000228711
4 *173:6 0.000228711
5 *173:11 *2042:B 0
6 *161:8 *173:11 0
*RES
1 *2210:X *173:6 3.6 
2 *173:6 *173:11 3.675 
3 *173:11 *2204:A 3.6 
*END

*D_NET *174 0.00100813
*CONN
*I *2205:A I *D sky130_fd_sc_hd__clkbuf_16
*I *2203:X O *D sky130_fd_sc_hd__clkbuf_16
*CAP
1 *2205:A 9.21138e-05
2 *2203:X 0
3 *174:15 0.000344442
4 *174:6 0.000252329
5 *174:15 *178:14 0
6 *81:14 *2205:A 0.000106779
7 *81:14 *174:15 0.000212469
*RES
1 *2203:X *174:6 3.6 
2 *174:6 *174:15 6.8225 
3 *174:15 *2205:A 3.2575 
*END

*D_NET *175 0.00609493
*CONN
*I *2209:A I *D sky130_fd_sc_hd__clkbuf_16
*I *2208:A I *D sky130_fd_sc_hd__clkbuf_16
*I *2207:A I *D sky130_fd_sc_hd__clkbuf_16
*I *2206:A I *D sky130_fd_sc_hd__clkbuf_16
*I *2204:X O *D sky130_fd_sc_hd__clkbuf_16
*CAP
1 *2209:A 0.0001044
2 *2208:A 8.47352e-05
3 *2207:A 8.34481e-05
4 *2206:A 0
5 *2204:X 0
6 *175:61 0.000365469
7 *175:49 0.000135966
8 *175:47 0.000963969
9 *175:29 0.00029403
10 *175:24 0.000304727
11 *175:17 0.000177762
12 *175:11 0.000544212
13 *175:6 0.00111226
14 *175:11 *2142:A1 4.40812e-05
15 *175:11 *2143:A1 1.33954e-05
16 *175:11 *2143:B2 0
17 *175:11 *2198:RESET_B 0.000115847
18 *175:11 *213:20 0.000170098
19 *175:47 *2197:D 0
20 *175:47 *2197:RESET_B 0
21 *175:47 *213:20 4.85929e-05
22 *2064:C *175:47 0
23 *2245:A *175:47 1.44259e-05
24 *2249:A *175:47 0.000234862
25 *2250:A *175:11 4.19967e-05
26 *4:10 *175:11 0.000124542
27 *4:10 *175:47 0.000735965
28 *4:34 *175:11 0.000380142
29 *88:12 *175:47 0
30 *88:61 *175:47 0
*RES
1 *2204:X *175:6 3.6 
2 *175:6 *175:11 12.09 
3 *175:11 *175:17 3.14 
4 *175:17 *2206:A 1.6 
5 *175:17 *175:24 1.47375 
6 *175:24 *175:29 3.04875 
7 *175:29 *2207:A 2.9125 
8 *175:6 *175:47 17.45 
9 *175:47 *175:49 0.735 
10 *175:49 *2208:A 2.8 
11 *175:47 *175:61 3.94125 
12 *175:61 *2209:A 3.04375 
*END

*D_NET *176 0.00154219
*CONN
*I *2056:A I *D sky130_fd_sc_hd__nor2_1
*I *2205:X O *D sky130_fd_sc_hd__clkbuf_16
*CAP
1 *2056:A 0.000471366
2 *2205:X 0.000471366
3 *2056:A *2228:A 7.15997e-05
4 *2056:A *203:23 0
5 *2056:A *280:28 0.00016148
6 *2056:A *282:355 7.76064e-05
7 *2056:A *282:365 0.000203484
8 *81:14 *2056:A 8.52845e-05
*RES
1 *2205:X *2056:A 17.1 
*END

*D_NET *177 0.0128874
*CONN
*I *2198:CLK I *D sky130_fd_sc_hd__dfrtp_1
*I *2195:CLK I *D sky130_fd_sc_hd__dfrtp_1
*I *2194:CLK I *D sky130_fd_sc_hd__dfrtp_1
*I *2200:CLK I *D sky130_fd_sc_hd__dfrtp_1
*I *2211:A I *D sky130_fd_sc_hd__clkbuf_8
*I *2199:CLK I *D sky130_fd_sc_hd__dfstp_2
*I *2201:CLK I *D sky130_fd_sc_hd__dfrtp_1
*I *2164:CLK I *D sky130_fd_sc_hd__dfrtp_1
*I *2165:CLK I *D sky130_fd_sc_hd__dfrtp_1
*I *2166:CLK I *D sky130_fd_sc_hd__dfrtp_1
*I *2206:X O *D sky130_fd_sc_hd__clkbuf_16
*CAP
1 *2198:CLK 0
2 *2195:CLK 0.000102545
3 *2194:CLK 0.000595098
4 *2200:CLK 7.24366e-05
5 *2211:A 0
6 *2199:CLK 0.000126397
7 *2201:CLK 0.000912425
8 *2164:CLK 0.000121284
9 *2165:CLK 0.000273497
10 *2166:CLK 0.00043799
11 *2206:X 0
12 *177:109 0.00119452
13 *177:99 0.000734428
14 *177:53 0.00107989
15 *177:22 0.000761489
16 *177:18 0.000540735
17 *177:16 0.000572532
18 *177:12 0.000341542
19 *177:10 0.000319742
20 *177:6 0.000305326
21 *2165:CLK *2153:B 7.95969e-05
22 *2165:CLK *2159:B1 3.53187e-05
23 *2165:CLK *198:10 7.97507e-05
24 *2165:CLK *198:14 1.70935e-05
25 *2166:CLK *2166:RESET_B 4.27173e-05
26 *2194:CLK *2146:B1 4.77757e-05
27 *2194:CLK *2194:D 5.05437e-05
28 *2194:CLK *2196:RESET_B 8.23535e-05
29 *2195:CLK *2146:B1 0.000199498
30 *2199:CLK *2152:B 0
31 *2199:CLK *2199:D 7.58604e-05
32 *2199:CLK *210:24 4.21447e-06
33 *2199:CLK *282:308 0
34 *2199:CLK *282:340 1.61831e-05
35 *2200:CLK *2200:D 4.77757e-05
36 *2201:CLK *2050:A 7.35813e-05
37 *2201:CLK *2054:A 3.82323e-06
38 *2201:CLK *2236:A 7.45329e-05
39 *2201:CLK *282:245 4.24575e-05
40 *177:10 *207:48 0
41 *177:12 *2052:A 2.96334e-05
42 *177:12 *207:48 7.00889e-06
43 *177:16 *2052:A 2.11084e-05
44 *177:16 *207:48 4.47209e-05
45 *177:18 *2050:A 0
46 *177:18 *2152:B 0
47 *177:18 *207:10 0
48 *177:99 *2151:B2 2.68721e-05
49 *177:99 *2198:D 6.60042e-05
50 *177:99 *207:48 0
51 *177:99 *222:113 2.4997e-05
52 *177:109 *2141:B 4.83328e-05
53 *177:109 *2198:D 4.89295e-05
54 *177:109 *207:67 0
55 *177:109 *219:33 0
56 *177:109 *222:16 0
57 *177:109 *222:113 0
58 *2050:B *2201:CLK 0.000124895
59 *2050:B *177:16 0.000457696
60 *2052:B *177:10 0.000118527
61 *2052:B *177:99 9.54399e-05
62 *2146:A1 *177:109 6.55328e-05
63 *2151:B1 *177:99 0
64 *2151:B1 *177:109 0.000376038
65 *2161:B1 *177:18 0.000181757
66 *2161:B1 *177:22 2.4002e-05
67 *2162:A2 *2164:CLK 8.23457e-05
68 *2232:A *2194:CLK 0.00012657
69 *2235:A *2165:CLK 0.000161939
70 *2237:A *177:16 0.000227286
71 *2246:A *2194:CLK 1.5957e-05
72 *2252:A *2165:CLK 5.83121e-06
73 *2252:A *2166:CLK 2.69153e-05
74 *2252:A *177:18 0.000145732
75 *2252:A *177:22 0.000136809
76 *81:43 *2199:CLK 4.66826e-05
77 *83:10 *177:99 8.69157e-05
78 *148:10 *177:18 7.26629e-05
79 *148:14 *177:18 0.00017389
80 *148:20 *177:18 0.000173792
81 *148:20 *177:22 0.00017765
*RES
1 *2206:X *177:6 3.6 
2 *177:6 *177:10 3.38 
3 *177:10 *177:12 2.865 
4 *177:12 *177:16 6.935 
5 *177:16 *177:18 8.265 
6 *177:18 *177:22 4.145 
7 *177:22 *2166:CLK 8.26 
8 *177:22 *2165:CLK 10.955 
9 *177:18 *2164:CLK 5.43 
10 *177:16 *177:53 0.615 
11 *177:53 *2201:CLK 14.88 
12 *177:53 *2199:CLK 6.03 
13 *177:12 *2211:A 1.6 
14 *177:10 *2200:CLK 2.74 
15 *177:6 *177:99 7.01 
16 *177:99 *177:109 13.255 
17 *177:109 *2194:CLK 11.365 
18 *177:109 *2195:CLK 3.775 
19 *177:99 *2198:CLK 1.6 
*END

*D_NET *178 0.0103515
*CONN
*I *2176:CLK I *D sky130_fd_sc_hd__dfrtp_1
*I *2183:CLK I *D sky130_fd_sc_hd__dfrtp_1
*I *2169:CLK I *D sky130_fd_sc_hd__dfrtp_1
*I *2202:CLK I *D sky130_fd_sc_hd__dfrtp_1
*I *2190:CLK I *D sky130_fd_sc_hd__dfrtp_1
*I *2212:A I *D sky130_fd_sc_hd__clkbuf_8
*I *2181:CLK I *D sky130_fd_sc_hd__dfrtp_1
*I *2167:CLK I *D sky130_fd_sc_hd__dfrtp_1
*I *2182:CLK I *D sky130_fd_sc_hd__dfrtp_1
*I *2168:CLK I *D sky130_fd_sc_hd__dfrtp_1
*I *2207:X O *D sky130_fd_sc_hd__clkbuf_16
*CAP
1 *2176:CLK 4.05571e-05
2 *2183:CLK 7.51831e-05
3 *2169:CLK 0.000218134
4 *2202:CLK 0.000505269
5 *2190:CLK 0.000304415
6 *2212:A 3.37585e-05
7 *2181:CLK 0.0003864
8 *2167:CLK 0.000107509
9 *2182:CLK 0
10 *2168:CLK 0.000226459
11 *2207:X 0.000591631
12 *178:110 0.000615862
13 *178:104 0.000451214
14 *178:89 0.000764463
15 *178:22 0.000319358
16 *178:20 0.000439196
17 *178:14 0.00114066
18 *178:10 0.000634717
19 *178:8 0.000810444
20 *2168:CLK *2168:D 7.60965e-05
21 *2176:CLK *2190:RESET_B 3.39496e-05
22 *2181:CLK *2058:A1 0.000496243
23 *2181:CLK *2167:D 0.000260864
24 *2181:CLK *2167:RESET_B 3.33839e-05
25 *2183:CLK *281:92 0.000156155
26 *2190:CLK *2128:B 7.59035e-05
27 *2190:CLK *280:16 0
28 *2202:CLK *2202:D 4.8854e-05
29 *2202:CLK *281:29 0
30 *2202:CLK *281:31 0
31 *178:10 *280:16 0
32 *178:14 *2058:A0 2.93136e-05
33 *178:14 *2059:S 9.23804e-06
34 *178:14 *280:16 0
35 *178:20 *2058:S 7.44252e-05
36 *178:20 *2167:D 4.77807e-05
37 *178:20 *280:28 4.77807e-05
38 *178:20 *280:88 0.00014714
39 *178:104 *281:29 0
40 *178:110 *2092:A1 0.000384049
41 *178:110 *2190:RESET_B 1.34503e-05
42 *178:110 *2276:A 0
43 *178:110 *281:10 0.000186099
44 *178:110 *281:92 8.53113e-06
45 *2092:A2 *178:110 0.00011379
46 *2129:A2 *2190:CLK 3.18219e-05
47 *2129:A3 *2190:CLK 0
48 *2225:A *2190:CLK 0
49 *2299:A *2202:CLK 8.53113e-06
50 *2299:A *178:104 0.000118527
51 *81:14 *2168:CLK 9.24127e-05
52 *81:14 *178:14 0
53 *81:14 *178:20 8.69333e-05
54 *81:14 *178:22 0.000104996
55 *174:15 *178:14 0
*RES
1 *2207:X *178:8 8.19 
2 *178:8 *178:10 1.38 
3 *178:10 *178:14 10.775 
4 *178:14 *178:20 6.755 
5 *178:20 *178:22 2.145 
6 *178:22 *2168:CLK 8.01 
7 *178:22 *2182:CLK 3.6 
8 *178:20 *2167:CLK 5.085 
9 *178:14 *2181:CLK 9.655 
10 *178:10 *2212:A 4.05 
11 *178:8 *2190:CLK 8.85 
12 *2207:X *178:89 6.12 
13 *178:89 *2202:CLK 11.685 
14 *178:89 *178:104 3.89 
15 *178:104 *178:110 9.62 
16 *178:110 *2169:CLK 6.81 
17 *178:110 *2183:CLK 5.49 
18 *178:104 *2176:CLK 2.395 
*END

*D_NET *179 0.0121513
*CONN
*I *2173:CLK I *D sky130_fd_sc_hd__dfrtp_1
*I *2187:CLK I *D sky130_fd_sc_hd__dfrtp_1
*I *2172:CLK I *D sky130_fd_sc_hd__dfrtp_1
*I *2177:CLK I *D sky130_fd_sc_hd__dfrtp_1
*I *2191:CLK I *D sky130_fd_sc_hd__dfrtp_1
*I *2178:CLK I *D sky130_fd_sc_hd__dfrtp_1
*I *2192:CLK I *D sky130_fd_sc_hd__dfrtp_1
*I *2196:CLK I *D sky130_fd_sc_hd__dfrtp_1
*I *2193:CLK I *D sky130_fd_sc_hd__dfrtp_1
*I *2179:CLK I *D sky130_fd_sc_hd__dfrtp_1
*I *2180:CLK I *D sky130_fd_sc_hd__dfrtp_1
*I *2208:X O *D sky130_fd_sc_hd__clkbuf_16
*CAP
1 *2173:CLK 0
2 *2187:CLK 0.000244256
3 *2172:CLK 0.000565631
4 *2177:CLK 0
5 *2191:CLK 7.71384e-05
6 *2178:CLK 0
7 *2192:CLK 0.000216185
8 *2196:CLK 0.000399782
9 *2193:CLK 0
10 *2179:CLK 0
11 *2180:CLK 0.000359023
12 *2208:X 0.000385113
13 *179:109 0.000663729
14 *179:96 0.000362157
15 *179:87 0.000479264
16 *179:74 0.000759065
17 *179:70 0.000708104
18 *179:46 0.000597097
19 *179:22 0.000522889
20 *179:16 0.000624756
21 *179:14 0.000476888
22 *179:12 0.000385113
23 *2172:CLK *2177:RESET_B 0.000161697
24 *2172:CLK *253:10 2.86975e-05
25 *2180:CLK *2136:A1 0
26 *2180:CLK *2180:D 6.73878e-05
27 *2191:CLK *2371:A 0.00016017
28 *2196:CLK *2106:A1 0
29 *2196:CLK *2193:D 2.16917e-05
30 *179:12 *2173:D 8.49205e-05
31 *179:12 *2173:RESET_B 0.000428923
32 *179:16 *2082:B1 0
33 *179:16 *2136:A1 0.000118527
34 *179:16 *2173:D 6.55328e-05
35 *179:16 *2215:A 5.00443e-05
36 *179:22 *2136:A1 0.000183738
37 *179:22 *2179:D 0
38 *179:22 *2215:A 5.63318e-05
39 *179:46 *2193:D 7.35729e-05
40 *179:46 *2268:A 4.38278e-05
41 *179:70 *2082:B1 3.64998e-06
42 *179:96 *2178:RESET_B 0.000134553
43 *179:109 *2371:A 0.000206817
44 *2122:A1 *179:12 8.26671e-05
45 *2122:B1 *179:12 4.82863e-05
46 *2123:B2 *179:12 0.000341879
47 *2133:A *179:87 9.63979e-05
48 *2133:A *179:96 4.82919e-05
49 *2133:B *2191:CLK 0
50 *2133:B *179:16 0
51 *2133:B *179:70 0
52 *2133:B *179:74 0
53 *2133:B *179:109 0
54 *2134:A2 *179:87 3.43054e-05
55 *2135:A *179:16 0.000206817
56 *2135:B *179:16 0
57 *2136:B2 *179:16 0
58 *2137:A2 *2196:CLK 0.000130057
59 *2138:A3 *2196:CLK 6.45648e-05
60 *2145:B *2196:CLK 0.000162318
61 *2216:A *2196:CLK 0.000201508
62 *2220:A *179:12 0.000194694
63 *2289:A *179:87 9.14516e-05
64 *2295:A *2180:CLK 0.000117698
65 *2296:A *2180:CLK 2.42236e-05
66 *42:80 *2180:CLK 0.000284926
67 *42:97 *2180:CLK 0
68 *42:178 *179:70 0
69 *42:178 *179:74 0
70 *115:10 *179:87 0.000101947
71 *124:25 *2196:CLK 7.21004e-05
72 *124:61 *2196:CLK 0.000130881
*RES
1 *2208:X *179:12 11.41 
2 *179:12 *179:14 2 
3 *179:14 *179:16 6.225 
4 *179:16 *179:22 5.63 
5 *179:22 *2180:CLK 13.415 
6 *179:22 *2179:CLK 1.6 
7 *179:16 *179:46 5.21 
8 *179:46 *2193:CLK 1.6 
9 *179:46 *2196:CLK 15.38 
10 *179:14 *179:70 5.285 
11 *179:70 *179:74 6.185 
12 *179:74 *2192:CLK 6.81 
13 *179:74 *179:87 7.97 
14 *179:87 *2178:CLK 1.6 
15 *179:87 *179:96 5.555 
16 *179:96 *2191:CLK 5.49 
17 *179:96 *179:109 4.4 
18 *179:109 *2177:CLK 1.6 
19 *179:109 *2172:CLK 10.675 
20 *179:70 *2187:CLK 5.155 
21 *179:12 *2173:CLK 1.6 
*END

*D_NET *180 0.0126902
*CONN
*I *2184:CLK I *D sky130_fd_sc_hd__dfrtp_1
*I *2170:CLK I *D sky130_fd_sc_hd__dfrtp_1
*I *2174:CLK I *D sky130_fd_sc_hd__dfrtp_1
*I *2188:CLK I *D sky130_fd_sc_hd__dfrtp_1
*I *2197:CLK I *D sky130_fd_sc_hd__dfrtp_1
*I *2189:CLK I *D sky130_fd_sc_hd__dfrtp_1
*I *2175:CLK I *D sky130_fd_sc_hd__dfrtp_1
*I *2171:CLK I *D sky130_fd_sc_hd__dfrtp_1
*I *2185:CLK I *D sky130_fd_sc_hd__dfrtp_1
*I *2186:CLK I *D sky130_fd_sc_hd__dfrtp_1
*I *2213:A I *D sky130_fd_sc_hd__clkbuf_1
*I *2209:X O *D sky130_fd_sc_hd__clkbuf_16
*CAP
1 *2184:CLK 0.000210048
2 *2170:CLK 0.000136974
3 *2174:CLK 0.000437827
4 *2188:CLK 0
5 *2197:CLK 0.000949268
6 *2189:CLK 0
7 *2175:CLK 0.000320776
8 *2171:CLK 0.000190864
9 *2185:CLK 3.76639e-05
10 *2186:CLK 0.000436927
11 *2213:A 0
12 *2209:X 0.000643667
13 *180:110 0.000658283
14 *180:94 0.000437827
15 *180:65 0.000439484
16 *180:63 0.00125675
17 *180:61 0.000260586
18 *180:59 0.000572092
19 *180:30 0.000348095
20 *180:19 0.000747519
21 *180:10 0.000645671
22 *2170:CLK *2184:D 5.83121e-06
23 *2171:CLK *2072:B1 0
24 *2171:CLK *2171:D 3.97377e-05
25 *2171:CLK *2172:RESET_B 4.29016e-05
26 *2171:CLK *2365:A 0.000369131
27 *2174:CLK *2188:RESET_B 9.13537e-05
28 *2174:CLK *2189:RESET_B 4.5506e-05
29 *2174:CLK *2275:A 2.86975e-05
30 *2175:CLK *2189:D 0.000191577
31 *2175:CLK *279:90 0
32 *2184:CLK *2184:D 8.04175e-05
33 *2184:CLK *2185:RESET_B 8.38025e-06
34 *2186:CLK *2186:RESET_B 6.33528e-05
35 *2186:CLK *269:8 2.49909e-05
36 *2186:CLK *336:10 2.9295e-05
37 *2197:CLK *2074:B 0.000121437
38 *2197:CLK *2197:D 0.000107112
39 *2197:CLK *190:12 6.0011e-05
40 *180:10 *2070:A 6.28765e-05
41 *180:19 *2070:A 5.53249e-06
42 *180:19 *2070:B 3.04982e-05
43 *180:19 *2267:A 0.000175721
44 *180:30 *2267:A 4.22675e-05
45 *180:30 *2365:A 0.000282164
46 *180:30 *276:12 4.33166e-05
47 *180:61 *2188:D 2.66852e-05
48 *180:61 *279:109 7.24866e-05
49 *180:63 *2188:D 1.43521e-05
50 *180:63 *2189:RESET_B 0
51 *180:63 *279:94 0.000131863
52 *180:63 *279:109 2.97004e-06
53 *180:65 *2189:D 4.18603e-06
54 *180:65 *2189:RESET_B 0
55 *180:65 *278:10 0
56 *180:65 *279:94 7.16263e-05
57 *180:110 *279:109 0.000205182
58 *2072:A2 *2171:CLK 0.000203989
59 *2072:A2 *180:30 0.000220042
60 *2118:B *180:19 7.01056e-05
61 *2222:A *2175:CLK 0.000208452
62 *2227:A *2174:CLK 2.75229e-05
63 *2227:A *180:61 0.000116853
64 *2227:A *180:110 8.53113e-06
65 *2248:A *2197:CLK 3.17915e-05
66 *2330:A *2170:CLK 0.000235382
67 *88:18 *2197:CLK 0.000250912
68 *94:10 *180:19 0
69 *97:8 *2197:CLK 5.05437e-05
70 *98:10 *180:10 4.61658e-05
71 *98:10 *180:19 8.08153e-06
*RES
1 *2209:X *180:10 9.225 
2 *180:10 *2213:A 3.6 
3 *180:10 *180:19 4.44 
4 *180:19 *2186:CLK 10.26 
5 *180:19 *180:30 3.93 
6 *180:30 *2185:CLK 4.05 
7 *180:30 *2171:CLK 9.18 
8 *2209:X *180:59 6.12 
9 *180:59 *180:61 2.145 
10 *180:61 *180:63 3.93 
11 *180:63 *180:65 2.4 
12 *180:65 *2175:CLK 10.425 
13 *180:65 *2189:CLK 3.6 
14 *180:63 *2197:CLK 19.92 
15 *180:61 *180:94 2 
16 *180:94 *2188:CLK 1.6 
17 *180:94 *2174:CLK 8.965 
18 *180:59 *180:110 6.48 
19 *180:110 *2170:CLK 6.465 
20 *180:110 *2184:CLK 6.735 
*END

*D_NET *181 0.0181752
*CONN
*I *2071:A1 I *D sky130_fd_sc_hd__o21ai_0
*I *2065:A1 I *D sky130_fd_sc_hd__o21ai_0
*I *2076:A1 I *D sky130_fd_sc_hd__o21ai_0
*I *2095:A1 I *D sky130_fd_sc_hd__o21ai_0
*I *2098:A1 I *D sky130_fd_sc_hd__o21ai_0
*I *2080:A2 I *D sky130_fd_sc_hd__o31ai_1
*I *2102:A1 I *D sky130_fd_sc_hd__o21ai_0
*I *2106:A1 I *D sky130_fd_sc_hd__o21ai_0
*I *2083:A1 I *D sky130_fd_sc_hd__o31ai_1
*I *2086:A1 I *D sky130_fd_sc_hd__o31ai_1
*I *2089:A I *D sky130_fd_sc_hd__or3_1
*I *2061:A1 I *D sky130_fd_sc_hd__o21ai_0
*I *2332:X O *D sky130_fd_sc_hd__buf_2
*CAP
1 *2071:A1 4.05098e-05
2 *2065:A1 3.00143e-05
3 *2076:A1 0
4 *2095:A1 0
5 *2098:A1 0.000458281
6 *2080:A2 0
7 *2102:A1 0
8 *2106:A1 0.000436397
9 *2083:A1 2.61242e-05
10 *2086:A1 0
11 *2089:A 1.41866e-05
12 *2061:A1 0.000368711
13 *2332:X 0.000738461
14 *181:127 0.000748052
15 *181:100 0.000895762
16 *181:86 0.00079987
17 *181:80 0.00102296
18 *181:76 0.000926311
19 *181:30 0.000493282
20 *181:28 0.000292698
21 *181:26 0.000441428
22 *181:24 0.00094177
23 *181:18 0.000433111
24 *181:14 0.00100692
25 *2065:A1 *2065:B1 1.16578e-05
26 *2065:A1 *281:175 0.000112349
27 *2071:A1 *2185:RESET_B 4.7072e-06
28 *2098:A1 *2134:B1 6.08319e-05
29 *2098:A1 *2265:A 4.90291e-05
30 *2098:A1 *329:10 3.97568e-05
31 *2106:A1 *2097:B 0
32 *181:14 *2071:B1 4.09654e-05
33 *181:14 *2072:B1 0
34 *181:14 *2171:RESET_B 0
35 *181:14 *2185:RESET_B 5.18362e-05
36 *181:14 *2345:A 0.000574701
37 *181:14 *2364:A 0.000637539
38 *181:14 *204:10 7.70938e-05
39 *181:14 *334:10 0.00021844
40 *181:14 *340:10 2.29568e-05
41 *181:18 *2065:B1 8.34904e-06
42 *181:18 *2071:B1 9.12494e-06
43 *181:18 *278:32 8.47393e-05
44 *181:18 *340:10 5.81601e-05
45 *181:24 *2070:B 0
46 *181:24 *278:32 0
47 *181:24 *281:175 0.000201508
48 *181:26 *2070:B 0
49 *181:26 *229:112 0
50 *181:28 *229:12 0
51 *181:28 *229:26 0
52 *181:28 *229:112 0
53 *181:30 *229:12 0
54 *181:80 *2076:B1 4.60584e-05
55 *181:80 *2272:A 7.35284e-05
56 *181:80 *270:6 4.82919e-05
57 *181:86 *222:78 7.93276e-05
58 *181:86 *222:84 0.000165841
59 *181:100 *2097:B 0.00014598
60 *181:100 *2123:A1 0.000125237
61 *181:100 *2123:B1 4.99619e-05
62 *181:127 *2219:A 0
63 *181:127 *2366:A 0.000327314
64 *181:127 *222:84 1.07797e-05
65 *2061:A2 *2061:A1 0.000317119
66 *2070:C *181:24 2.92496e-05
67 *2070:C *181:26 0.000307289
68 *2070:C *181:76 0.000387891
69 *2071:A2 *2071:A1 4.77807e-05
70 *2076:A2 *181:76 5.78094e-05
71 *2076:A2 *181:80 4.99619e-05
72 *2083:A2 *2083:A1 4.66108e-05
73 *2089:C *2089:A 8.65905e-05
74 *2095:A2 *181:127 0.000310864
75 *2097:A *181:100 0.000233004
76 *2097:C *181:100 4.66108e-05
77 *2098:A2 *2098:A1 9.32375e-05
78 *2106:A2 *2106:A1 0
79 *2114:A *2061:A1 8.82496e-05
80 *2114:B *2061:A1 1.44259e-05
81 *2114:B *181:30 2.54692e-05
82 *2116:A *2065:A1 4.16445e-05
83 *2116:A *181:24 8.03844e-05
84 *2120:A2 *181:86 0
85 *2120:A2 *181:127 0
86 *2120:B1 *181:80 6.54766e-05
87 *2122:A2 *181:100 9.2741e-05
88 *2126:A1 *2089:A 8.65905e-05
89 *2134:A2 *2098:A1 0.000489108
90 *2135:B *2106:A1 0
91 *2137:B1 *2106:A1 0
92 *2196:CLK *2106:A1 0
93 *2216:A *2106:A1 0.000226943
94 *2320:A *2098:A1 0.000156778
95 *2332:A *181:14 1.79174e-05
96 *88:26 *2106:A1 0
97 *88:26 *181:100 0.000155928
98 *93:12 *181:26 0.000164686
99 *93:12 *181:28 0.000360604
100 *93:12 *181:30 9.50342e-06
101 *94:10 *181:18 0
102 *94:10 *181:24 6.28843e-05
103 *95:6 *2071:A1 5.83121e-06
104 *99:6 *181:80 0.000108357
105 *100:34 *181:86 0
106 *101:10 *181:30 2.05661e-05
107 *101:20 *181:30 5.20968e-05
108 *102:6 *181:100 4.07182e-05
109 *108:10 *2061:A1 0.000265202
110 *117:8 *181:100 7.8192e-05
*RES
1 *2332:X *181:14 25.29 
2 *181:14 *181:18 6.185 
3 *181:18 *181:24 6.485 
4 *181:24 *181:26 5.46 
5 *181:26 *181:28 4.185 
6 *181:28 *181:30 2.4 
7 *181:30 *2061:A1 11.55 
8 *181:30 *2089:A 4.395 
9 *181:28 *2086:A1 3.6 
10 *181:26 *2083:A1 4.05 
11 *181:24 *181:76 8.93 
12 *181:76 *181:80 9.695 
13 *181:80 *181:86 7.7675 
14 *181:86 *181:100 14.7475 
15 *181:100 *2106:A1 13.61 
16 *181:100 *2102:A1 1.6 
17 *181:86 *2080:A2 1.6 
18 *181:80 *181:127 8.36 
19 *181:127 *2098:A1 15.545 
20 *181:127 *2095:A1 1.6 
21 *181:76 *2076:A1 1.6 
22 *181:18 *2065:A1 2.74 
23 *181:14 *2071:A1 4.395 
*END

*D_NET *182 0.00569244
*CONN
*I *2294:A I *D sky130_fd_sc_hd__dlygate4sd3_1
*I *2343:A I *D sky130_fd_sc_hd__buf_2
*I *2180:Q O *D sky130_fd_sc_hd__dfrtp_1
*CAP
1 *2294:A 0.000365409
2 *2343:A 0.00102699
3 *2180:Q 0
4 *182:4 0.0013924
5 *2294:A *2362:A 4.21518e-05
6 *2343:A *2362:A 0.00286278
7 *2107:B *2294:A 2.69443e-06
*RES
1 *2180:Q *182:4 1.6 
2 *182:4 *2343:A 28.285 
3 *182:4 *2294:A 11.39 
*END

*D_NET *183 0.000611016
*CONN
*I *2183:D I *D sky130_fd_sc_hd__dfrtp_1
*I *2214:X O *D sky130_fd_sc_hd__dlygate4sd3_1
*CAP
1 *2183:D 0.000223256
2 *2214:X 0.000223256
3 *2183:D *342:6 9.41754e-05
4 *2214:A *2183:D 7.03276e-05
*RES
1 *2214:X *2183:D 10.5 
*END

*D_NET *184 0.00142765
*CONN
*I *2102:B1 I *D sky130_fd_sc_hd__o21ai_0
*I *2136:A1 I *D sky130_fd_sc_hd__a22o_1
*I *2215:X O *D sky130_fd_sc_hd__dlygate4sd3_1
*CAP
1 *2102:B1 5.58462e-05
2 *2136:A1 0.000284599
3 *2215:X 0.000340445
4 *2136:A1 *2268:A 6.5525e-05
5 *2136:B1 *2136:A1 9.50342e-06
6 *2136:B2 *2136:A1 0.000148
7 *2139:A2 *2136:A1 1.34361e-05
8 *2180:CLK *2136:A1 0
9 *2295:A *2136:A1 0
10 *118:6 *2102:B1 0.000121437
11 *118:6 *2136:A1 8.65961e-05
12 *179:16 *2136:A1 0.000118527
13 *179:22 *2136:A1 0.000183738
*RES
1 *2215:X *2136:A1 13.965 
2 *2215:X *2102:B1 4.34 
*END

*D_NET *185 0.000261694
*CONN
*I *2193:D I *D sky130_fd_sc_hd__dfrtp_1
*I *2216:X O *D sky130_fd_sc_hd__dlygate4sd3_1
*CAP
1 *2193:D 8.32147e-05
2 *2216:X 8.32147e-05
3 *2196:CLK *2193:D 2.16917e-05
4 *179:46 *2193:D 7.35729e-05
*RES
1 *2216:X *2193:D 4.685 
*END

*D_NET *186 0.0026931
*CONN
*I *2058:A1 I *D sky130_fd_sc_hd__mux2_1
*I *2109:A1 I *D sky130_fd_sc_hd__mux2_1
*I *2217:X O *D sky130_fd_sc_hd__dlygate4sd3_1
*CAP
1 *2058:A1 0.000122868
2 *2109:A1 0.000384797
3 *2217:X 0.000245808
4 *186:10 0.000753474
5 *2109:A1 *2110:S 0.000122801
6 *2109:A1 *2167:RESET_B 0.000134515
7 *2109:A1 *2217:A 8.44308e-05
8 *186:10 *2217:A 7.41023e-05
9 *2181:CLK *2058:A1 0.000496243
10 *2218:A *2058:A1 0.000274061
*RES
1 *2217:X *186:10 7.065 
2 *186:10 *2109:A1 10.77 
3 *186:10 *2058:A1 8.19 
*END

*D_NET *187 0.00091263
*CONN
*I *2167:D I *D sky130_fd_sc_hd__dfrtp_1
*I *2218:X O *D sky130_fd_sc_hd__dlygate4sd3_1
*CAP
1 *2167:D 0.000248434
2 *2218:X 0.000248434
3 *2167:D *2058:A0 4.23802e-05
4 *2167:D *2059:S 6.47357e-05
5 *2181:CLK *2167:D 0.000260864
6 *178:20 *2167:D 4.77807e-05
*RES
1 *2218:X *2167:D 11.445 
*END

*D_NET *188 0.00138851
*CONN
*I *2123:A1 I *D sky130_fd_sc_hd__a22o_1
*I *2080:B1 I *D sky130_fd_sc_hd__o31ai_1
*I *2219:X O *D sky130_fd_sc_hd__dlygate4sd3_1
*CAP
1 *2123:A1 7.2863e-05
2 *2080:B1 0
3 *2219:X 0.000252527
4 *188:10 0.00032539
5 *2123:A1 *2123:B1 4.82863e-05
6 *188:10 *2123:B1 0
7 *2082:A2 *2123:A1 0
8 *2097:A *2123:A1 0
9 *2120:A2 *188:10 0.00023937
10 *2123:B2 *188:10 5.12942e-05
11 *100:34 *188:10 4.05358e-05
12 *102:6 *2123:A1 0.000233004
13 *181:100 *2123:A1 0.000125237
*RES
1 *2219:X *188:10 11.315 
2 *188:10 *2080:B1 1.6 
3 *188:10 *2123:A1 4.495 
*END

*D_NET *189 0.000286923
*CONN
*I *2187:D I *D sky130_fd_sc_hd__dfrtp_1
*I *2220:X O *D sky130_fd_sc_hd__dlygate4sd3_1
*CAP
1 *2187:D 8.40794e-05
2 *2220:X 8.40794e-05
3 *2187:D *2173:RESET_B 0.000118764
4 *124:76 *2187:D 0
*RES
1 *2220:X *2187:D 8.775 
*END

*D_NET *190 0.00141315
*CONN
*I *2127:A1 I *D sky130_fd_sc_hd__a22o_1
*I *2086:B1 I *D sky130_fd_sc_hd__o31ai_1
*I *2221:X O *D sky130_fd_sc_hd__dlygate4sd3_1
*CAP
1 *2127:A1 0
2 *2086:B1 7.68802e-05
3 *2221:X 0.000420558
4 *190:12 0.000497438
5 *2086:B1 *2127:B1 4.82919e-05
6 *2086:B1 *279:90 5.83121e-06
7 *190:12 *278:21 4.94404e-05
8 *190:12 *279:94 9.14049e-05
9 *2088:A2 *2086:B1 0.000160635
10 *2126:B1 *2086:B1 2.65814e-06
11 *2197:CLK *190:12 6.0011e-05
12 *93:8 *2086:B1 0
*RES
1 *2221:X *190:12 10.97 
2 *190:12 *2086:B1 3.445 
3 *190:12 *2127:A1 1.6 
*END

*D_NET *191 0.000644903
*CONN
*I *2189:D I *D sky130_fd_sc_hd__dfrtp_1
*I *2222:X O *D sky130_fd_sc_hd__dlygate4sd3_1
*CAP
1 *2189:D 0.00022457
2 *2222:X 0.00022457
3 *2175:CLK *2189:D 0.000191577
4 *180:65 *2189:D 4.18603e-06
*RES
1 *2222:X *2189:D 10.755 
*END

*D_NET *192 0.00223527
*CONN
*I *2090:A I *D sky130_fd_sc_hd__nand2_1
*I *2128:A I *D sky130_fd_sc_hd__nand2_1
*I *2129:A1 I *D sky130_fd_sc_hd__a32oi_1
*I *2223:X O *D sky130_fd_sc_hd__dlygate4sd3_1
*CAP
1 *2090:A 0.000302148
2 *2128:A 1.99916e-05
3 *2129:A1 0.000146746
4 *2223:X 8.93496e-05
5 *192:14 0.000296621
6 *192:8 0.000521381
7 *2090:A *2190:RESET_B 0.00015737
8 *2090:A *273:6 5.64111e-05
9 *2128:A *2128:B 5.05297e-06
10 *2129:A1 *2128:B 4.85494e-05
11 *2129:A1 *2129:B2 4.00541e-06
12 *2090:B *2090:A 6.68315e-05
13 *2092:A2 *2090:A 5.83121e-06
14 *2129:A3 *2129:A1 4.82863e-05
15 *2129:A3 *192:8 0
16 *2129:A3 *192:14 0
17 *2224:A *2129:A1 1.16578e-05
18 *2224:A *192:8 0.000185411
19 *2224:A *192:14 0.000269626
20 *108:10 *192:8 0
*RES
1 *2223:X *192:8 5.745 
2 *192:8 *192:14 4.955 
3 *192:14 *2129:A1 4.135 
4 *192:14 *2128:A 1.96 
5 *192:8 *2090:A 7.875 
*END

*D_NET *193 0.00325174
*CONN
*I *2344:A I *D sky130_fd_sc_hd__buf_2
*I *2291:A I *D sky130_fd_sc_hd__dlygate4sd3_1
*I *2170:Q O *D sky130_fd_sc_hd__dfrtp_1
*CAP
1 *2344:A 0.00143209
2 *2291:A 0.00157781
3 *2170:Q 0.000145717
4 *2291:A *2170:RESET_B 7.11301e-05
5 *2291:A *2174:RESET_B 2.49909e-05
*RES
1 *2170:Q *2291:A 5.72 
2 *2291:A *2344:A 25.04 
*END

*D_NET *194 0.00133337
*CONN
*I *2130:B1 I *D sky130_fd_sc_hd__o31ai_1
*I *2224:X O *D sky130_fd_sc_hd__dlygate4sd3_1
*CAP
1 *2130:B1 0.000432331
2 *2224:X 0.000432331
3 *2130:B1 *2341:A 0
4 *2129:A2 *2130:B1 8.59462e-05
5 *2225:A *2130:B1 0.000135199
6 *108:10 *2130:B1 0.000247567
*RES
1 *2224:X *2130:B1 14.745 
*END

*D_NET *195 0.000208444
*CONN
*I *2190:D I *D sky130_fd_sc_hd__dfrtp_1
*I *2225:X O *D sky130_fd_sc_hd__dlygate4sd3_1
*CAP
1 *2190:D 0.000104222
2 *2225:X 0.000104222
3 *2190:D *279:73 0
4 *2225:A *2190:D 0
*RES
1 *2225:X *2190:D 8.58 
*END

*D_NET *196 0.00128266
*CONN
*I *2125:A1 I *D sky130_fd_sc_hd__a22o_1
*I *2083:B1 I *D sky130_fd_sc_hd__o31ai_1
*I *2226:X O *D sky130_fd_sc_hd__dlygate4sd3_1
*CAP
1 *2125:A1 4.95801e-05
2 *2083:B1 6.54329e-05
3 *2226:X 0.00021742
4 *196:6 0.000332433
5 *2125:A1 *278:21 0.000162332
6 *2125:A1 *278:32 9.50342e-06
7 *2125:A1 *279:94 8.97642e-05
8 *196:6 *2085:A1 2.78553e-05
9 *196:6 *2085:B1 2.86975e-05
10 *2085:A2 *2083:B1 4.66742e-05
11 *2085:A2 *196:6 0.000204034
12 *2302:A *196:6 4.89295e-05
*RES
1 *2226:X *196:6 6.19 
2 *196:6 *2083:B1 2.755 
3 *196:6 *2125:A1 7.49 
*END

*D_NET *197 0.000608394
*CONN
*I *2188:D I *D sky130_fd_sc_hd__dfrtp_1
*I *2227:X O *D sky130_fd_sc_hd__dlygate4sd3_1
*CAP
1 *2188:D 0.000262255
2 *2227:X 0.000262255
3 *2188:D *2189:RESET_B 4.18603e-06
4 *2227:A *2188:D 3.86607e-05
5 *180:61 *2188:D 2.66852e-05
6 *180:63 *2188:D 1.43521e-05
*RES
1 *2227:X *2188:D 10.92 
*END

*D_NET *198 0.00353684
*CONN
*I *2046:C_N I *D sky130_fd_sc_hd__nor3b_1
*I *2156:B I *D sky130_fd_sc_hd__nor2_1
*I *2153:A I *D sky130_fd_sc_hd__nand3_1
*I *2157:B I *D sky130_fd_sc_hd__xor2_1
*I *2155:A1 I *D sky130_fd_sc_hd__o21ai_0
*I *2228:X O *D sky130_fd_sc_hd__dlygate4sd3_1
*CAP
1 *2046:C_N 0
2 *2156:B 0.000167734
3 *2153:A 0.000203908
4 *2157:B 7.19187e-05
5 *2155:A1 4.94606e-05
6 *2228:X 0.000238005
7 *198:43 0.000266677
8 *198:14 0.000264658
9 *198:10 0.000674044
10 *198:8 0.000663805
11 *2153:A *2153:B 2.11921e-05
12 *2153:A *2159:B1 2.75229e-05
13 *2156:B *2046:B 0.000211491
14 *2156:B *2156:A 2.76781e-05
15 *2156:B *2161:A1 2.97561e-05
16 *2156:B *203:29 4.90357e-05
17 *198:8 *280:55 0.000159179
18 *198:10 *2158:B 0
19 *198:10 *2161:A1 0
20 *198:10 *2164:D 6.29313e-05
21 *198:10 *2165:D 9.54469e-05
22 *198:14 *2159:B1 0
23 *198:14 *2165:D 8.53113e-06
24 *198:43 *2158:B 0
25 *198:43 *2161:A1 0
26 *2155:B1 *2153:A 1.1392e-05
27 *2155:B1 *198:14 0
28 *2158:C *2156:B 4.82863e-05
29 *2159:A2 *2155:A1 7.35729e-05
30 *2159:A2 *2157:B 5.83121e-06
31 *2159:A2 *198:14 0
32 *2165:CLK *198:10 7.97507e-05
33 *2165:CLK *198:14 1.70935e-05
34 *148:20 *2153:A 7.93568e-06
*RES
1 *2228:X *198:8 6.465 
2 *198:8 *198:10 6.48 
3 *198:10 *198:14 4.4 
4 *198:14 *2155:A1 2.74 
5 *198:14 *2157:B 2.74 
6 *198:10 *2153:A 6.48 
7 *198:8 *198:43 3.38 
8 *198:43 *2156:B 9.3725 
9 *198:43 *2046:C_N 1.6 
*END

*D_NET *199 0.000277682
*CONN
*I *2164:D I *D sky130_fd_sc_hd__dfrtp_1
*I *2229:X O *D sky130_fd_sc_hd__dlygate4sd3_1
*CAP
1 *2164:D 7.50077e-05
2 *2229:X 7.50077e-05
3 *2164:D *2159:B1 6.47357e-05
4 *198:10 *2164:D 6.29313e-05
*RES
1 *2229:X *2164:D 9.03 
*END

*D_NET *200 0.00119259
*CONN
*I *2106:B1 I *D sky130_fd_sc_hd__o21ai_0
*I *2037:A I *D sky130_fd_sc_hd__inv_1
*I *2230:X O *D sky130_fd_sc_hd__dlygate4sd3_1
*CAP
1 *2106:B1 0.000382629
2 *2037:A 2.6482e-05
3 *2230:X 0.000409111
4 *2106:B1 *2139:A1 0.000241559
5 *2139:A2 *2106:B1 6.97275e-05
6 *2231:A *2106:B1 2.92e-05
7 *2232:A *2106:B1 3.38832e-05
*RES
1 *2230:X *2037:A 3.78125 
2 *2230:X *2106:B1 14.49 
*END

*D_NET *201 0.000859208
*CONN
*I *2139:A1 I *D sky130_fd_sc_hd__a21oi_1
*I *2231:X O *D sky130_fd_sc_hd__dlygate4sd3_1
*CAP
1 *2139:A1 0.000277708
2 *2231:X 0.000277708
3 *2106:B1 *2139:A1 0.000241559
4 *2139:B1 *2139:A1 0
5 *2232:A *2139:A1 6.22332e-05
*RES
1 *2231:X *2139:A1 11.94 
*END

*D_NET *202 0.000358367
*CONN
*I *2194:D I *D sky130_fd_sc_hd__dfrtp_1
*I *2232:X O *D sky130_fd_sc_hd__dlygate4sd3_1
*CAP
1 *2194:D 5.49825e-05
2 *2232:X 5.49825e-05
3 *2194:D *2196:RESET_B 0.000197858
4 *2194:CLK *2194:D 5.05437e-05
*RES
1 *2232:X *2194:D 5.03 
*END

*D_NET *203 0.00305836
*CONN
*I *2158:A I *D sky130_fd_sc_hd__nand3_1
*I *2046:A I *D sky130_fd_sc_hd__nor3b_1
*I *2156:A I *D sky130_fd_sc_hd__nor2_1
*I *2157:A I *D sky130_fd_sc_hd__xor2_1
*I *2233:X O *D sky130_fd_sc_hd__dlygate4sd3_1
*CAP
1 *2158:A 1.04904e-05
2 *2046:A 0
3 *2156:A 1.98106e-05
4 *2157:A 0.000388697
5 *2233:X 0
6 *203:29 0.000150895
7 *203:23 0.000643697
8 *203:6 0.000890819
9 *2156:A *2046:B 0.00012657
10 *2157:A *2165:RESET_B 0.000120186
11 *203:23 *2158:B 0
12 *203:23 *2165:RESET_B 0.000268237
13 *2056:A *203:23 0
14 *2156:B *2156:A 2.76781e-05
15 *2156:B *203:29 4.90357e-05
16 *2158:C *2156:A 0.000164874
17 *2158:C *203:29 0.000111295
18 *2238:A *203:23 8.6076e-05
*RES
1 *2233:X *203:6 3.6 
2 *203:6 *2157:A 10.14 
3 *203:6 *203:23 11.255 
4 *203:23 *203:29 2.64 
5 *203:29 *2156:A 3.085 
6 *203:29 *2046:A 1.6 
7 *203:23 *2158:A 1.96 
*END

*D_NET *204 0.002516
*CONN
*I *2280:A I *D sky130_fd_sc_hd__dlygate4sd3_1
*I *2345:A I *D sky130_fd_sc_hd__buf_2
*I *2171:Q O *D sky130_fd_sc_hd__dfrtp_1
*CAP
1 *2280:A 0.000161409
2 *2345:A 0.00060727
3 *2171:Q 0.000118156
4 *204:10 0.000886835
5 *204:10 *2072:B1 0
6 *2332:A *2345:A 9.05349e-05
7 *181:14 *2345:A 0.000574701
8 *181:14 *204:10 7.70938e-05
*RES
1 *2171:Q *204:10 5.685 
2 *204:10 *2345:A 17.73 
3 *204:10 *2280:A 5.88 
*END

*D_NET *205 0.00121342
*CONN
*I *2159:B1 I *D sky130_fd_sc_hd__o21ai_0
*I *2234:X O *D sky130_fd_sc_hd__dlygate4sd3_1
*CAP
1 *2159:B1 0.000307305
2 *2234:X 0.000307305
3 *2159:B1 *2317:A 5.83121e-06
4 *2159:B1 *280:55 7.11365e-05
5 *2153:A *2159:B1 2.75229e-05
6 *2155:A2 *2159:B1 5.98004e-06
7 *2159:A2 *2159:B1 9.50342e-06
8 *2164:D *2159:B1 6.47357e-05
9 *2165:CLK *2159:B1 3.53187e-05
10 *2235:A *2159:B1 0.00011663
11 *150:14 *2159:B1 0.000262149
12 *198:14 *2159:B1 0
*RES
1 *2234:X *2159:B1 15.015 
*END

*D_NET *206 0.000621374
*CONN
*I *2165:D I *D sky130_fd_sc_hd__dfrtp_1
*I *2235:X O *D sky130_fd_sc_hd__dlygate4sd3_1
*CAP
1 *2165:D 0.000196248
2 *2235:X 0.000196248
3 *2165:D *2153:B 0.0001249
4 *198:10 *2165:D 9.54469e-05
5 *198:14 *2165:D 8.53113e-06
*RES
1 *2235:X *2165:D 10.155 
*END

*D_NET *207 0.00772277
*CONN
*I *2143:B2 I *D sky130_fd_sc_hd__o22a_1
*I *2047:B_N I *D sky130_fd_sc_hd__nor2b_1
*I *2141:A I *D sky130_fd_sc_hd__nor3_1
*I *2138:C1 I *D sky130_fd_sc_hd__a311oi_1
*I *2151:A1 I *D sky130_fd_sc_hd__a32o_1
*I *2050:A I *D sky130_fd_sc_hd__nand2_1
*I *2154:B1_N I *D sky130_fd_sc_hd__a21bo_1
*I *2162:B1_N I *D sky130_fd_sc_hd__a21boi_0
*I *2236:X O *D sky130_fd_sc_hd__dlygate4sd3_1
*CAP
1 *2143:B2 0.000388101
2 *2047:B_N 0
3 *2141:A 3.98628e-05
4 *2138:C1 0.000217029
5 *2151:A1 0
6 *2050:A 7.30125e-05
7 *2154:B1_N 0
8 *2162:B1_N 8.44523e-05
9 *2236:X 0.000646894
10 *207:67 0.000447847
11 *207:61 0.000310041
12 *207:57 0.000573931
13 *207:48 0.000377189
14 *207:10 0.000379523
15 *207:8 0.000704532
16 *2050:A *2236:A 0.0001249
17 *2050:A *282:247 0
18 *2138:C1 *2138:A1 3.77036e-05
19 *2138:C1 *219:16 9.80032e-06
20 *2138:C1 *279:14 2.49909e-05
21 *2141:A *279:14 4.21973e-05
22 *2143:B2 *2043:A 8.53113e-06
23 *2143:B2 *2143:A1 3.21081e-06
24 *2143:B2 *222:6 4.11718e-05
25 *2143:B2 *222:16 5.05437e-05
26 *2143:B2 *222:113 1.49649e-05
27 *207:8 *2236:A 8.96017e-05
28 *207:10 *2054:A 0
29 *207:48 *2151:A2 9.50342e-06
30 *207:57 *2151:A2 0.000152821
31 *207:57 *2152:A 0
32 *207:61 *2151:A2 6.27438e-05
33 *207:67 *2043:A 0
34 *207:67 *2141:B 0
35 *207:67 *2152:A 0.000443492
36 *207:67 *219:33 7.30547e-05
37 *207:67 *279:14 0.000163809
38 *2050:B *207:48 0.000270409
39 *2138:A3 *2138:C1 0.0001249
40 *2142:B1 *2143:B2 4.59969e-05
41 *2143:B1 *2143:B2 2.47682e-05
42 *2150:A2 *2143:B2 0
43 *2151:A3 *207:48 5.73518e-05
44 *2151:B1 *2143:B2 0.000137578
45 *2151:B1 *207:48 9.50342e-06
46 *2151:B1 *207:57 0.000231564
47 *2163:B1 *2162:B1_N 3.89366e-05
48 *2163:B1 *207:10 0.000142845
49 *2201:CLK *2050:A 7.35813e-05
50 *2237:A *207:8 0.000281233
51 *2251:A *207:57 0
52 *2318:A *207:10 0.000116947
53 *2339:A *2138:C1 4.82863e-05
54 *85:12 *2143:B2 0.000419159
55 *85:19 *2143:B2 4.89295e-05
56 *140:43 *2143:B2 3.59531e-06
57 *175:11 *2143:B2 0
58 *177:10 *207:48 0
59 *177:12 *207:48 7.00889e-06
60 *177:16 *207:48 4.47209e-05
61 *177:18 *2050:A 0
62 *177:18 *207:10 0
63 *177:99 *207:48 0
64 *177:109 *207:67 0
*RES
1 *2236:X *207:8 8.19 
2 *207:8 *207:10 6.225 
3 *207:10 *2162:B1_N 5.235 
4 *207:10 *2154:B1_N 3.6 
5 *207:8 *2050:A 5.61 
6 *2236:X *207:48 8.19 
7 *207:48 *2151:A1 3.6 
8 *207:48 *207:57 2.655 
9 *207:57 *207:61 3.83 
10 *207:61 *207:67 9.97 
11 *207:67 *2138:C1 5.515 
12 *207:67 *2141:A 2.395 
13 *207:61 *2047:B_N 1.6 
14 *207:57 *2143:B2 16.54 
*END

*D_NET *208 0.000772064
*CONN
*I *2052:A I *D sky130_fd_sc_hd__nand2_1
*I *2237:X O *D sky130_fd_sc_hd__dlygate4sd3_1
*CAP
1 *2052:A 0.000280504
2 *2237:X 0.000280504
3 *81:14 *2052:A 0.000160314
4 *164:10 *2052:A 0
5 *164:21 *2052:A 0
6 *177:12 *2052:A 2.96334e-05
7 *177:16 *2052:A 2.11084e-05
*RES
1 *2237:X *2052:A 11.46 
*END

*D_NET *209 0.00132131
*CONN
*I *2200:D I *D sky130_fd_sc_hd__dfrtp_1
*I *2238:X O *D sky130_fd_sc_hd__dlygate4sd3_1
*CAP
1 *2200:D 0.000517329
2 *2238:X 0.000517329
3 *2052:B *2200:D 0.000185405
4 *2200:CLK *2200:D 4.77757e-05
5 *2238:A *2200:D 5.3468e-05
*RES
1 *2238:X *2200:D 14.97 
*END

*D_NET *210 0.00635403
*CONN
*I *2141:B I *D sky130_fd_sc_hd__nor3_1
*I *2043:A I *D sky130_fd_sc_hd__nor2_1
*I *2140:A I *D sky130_fd_sc_hd__nor3_1
*I *2111:B1_N I *D sky130_fd_sc_hd__a21boi_0
*I *2057:A1 I *D sky130_fd_sc_hd__o2111ai_1
*I *2152:B I *D sky130_fd_sc_hd__or2_0
*I *2044:A1 I *D sky130_fd_sc_hd__o21ai_0
*I *2239:X O *D sky130_fd_sc_hd__dlygate4sd3_1
*CAP
1 *2141:B 6.83359e-05
2 *2043:A 0.000160357
3 *2140:A 0.000172616
4 *2111:B1_N 0.000104946
5 *2057:A1 1.89079e-05
6 *2152:B 0.000272436
7 *2044:A1 1.8905e-05
8 *2239:X 0.000568349
9 *210:73 0.000251743
10 *210:50 0.000346041
11 *210:24 0.000457618
12 *210:20 0.000807247
13 *2043:A *279:14 6.49671e-05
14 *2057:A1 *282:340 2.75145e-05
15 *2152:B *2152:A 8.8266e-05
16 *210:20 *2053:B1 1.91597e-05
17 *210:20 *2151:A2 2.0514e-05
18 *210:24 *2047:A 0
19 *210:24 *2199:D 7.17811e-05
20 *210:24 *211:12 1.15688e-05
21 *2057:A2 *210:24 0.000114492
22 *2138:A2 *210:50 7.33465e-05
23 *2138:B1 *2111:B1_N 3.83041e-05
24 *2140:C *2111:B1_N 8.49205e-05
25 *2140:C *2140:A 0.000307049
26 *2141:C *2043:A 6.2706e-05
27 *2141:C *2141:B 0.000106648
28 *2143:B2 *2043:A 8.53113e-06
29 *2151:B1 *2043:A 0.000111939
30 *2151:B1 *2141:B 4.43871e-06
31 *2199:CLK *2152:B 0
32 *2199:CLK *210:24 4.21447e-06
33 *42:31 *2043:A 1.7635e-05
34 *42:39 *2140:A 0.000192125
35 *42:45 *210:24 6.21553e-05
36 *42:45 *210:50 0.00011852
37 *42:70 *2044:A1 4.82863e-05
38 *42:70 *210:20 7.03608e-05
39 *81:22 *2057:A1 1.03755e-05
40 *81:22 *2152:B 0.000162489
41 *81:43 *2057:A1 4.66108e-05
42 *81:43 *210:20 0.000313852
43 *81:43 *210:24 2.24992e-05
44 *81:49 *210:20 0.000201508
45 *85:8 *210:24 9.29751e-06
46 *85:12 *2043:A 0.000163204
47 *123:8 *2111:B1_N 8.8266e-05
48 *140:6 *2140:A 2.75229e-05
49 *164:10 *2152:B 0
50 *165:14 *210:20 4.66108e-05
51 *165:14 *210:24 2.92496e-05
52 *165:14 *210:50 0.000116728
53 *165:27 *210:50 9.05377e-05
54 *177:18 *2152:B 0
55 *177:109 *2141:B 4.83328e-05
56 *207:67 *2043:A 0
57 *207:67 *2141:B 0
*RES
1 *2239:X *2044:A1 3.65 
2 *2239:X *210:20 10.95 
3 *210:20 *210:24 3.4875 
4 *210:24 *2152:B 8.7975 
5 *210:24 *2057:A1 4.2825 
6 *210:20 *210:50 5.42 
7 *210:50 *2111:B1_N 3.775 
8 *210:50 *2140:A 5.5 
9 *2140:A *210:73 4.05 
10 *210:73 *2043:A 7.74 
11 *210:73 *2141:B 5.235 
*END

*D_NET *211 0.00208841
*CONN
*I *2151:A2 I *D sky130_fd_sc_hd__a32o_1
*I *2053:B1 I *D sky130_fd_sc_hd__a21oi_1
*I *2240:X O *D sky130_fd_sc_hd__dlygate4sd3_1
*CAP
1 *2151:A2 0.000344576
2 *2053:B1 4.48099e-05
3 *2240:X 0.000123715
4 *211:12 0.000513101
5 *2151:A2 *2152:A 0
6 *211:12 *2111:A1 0
7 *2151:A3 *2151:A2 9.50342e-06
8 *2241:A *2053:B1 5.30673e-05
9 *2251:A *2151:A2 3.68682e-05
10 *2254:A *211:12 3.45588e-05
11 *42:70 *2053:B1 9.59747e-05
12 *42:70 *2151:A2 0.000110668
13 *81:43 *2053:B1 0.000201503
14 *81:43 *211:12 2.92496e-05
15 *165:14 *2151:A2 0.000121437
16 *165:14 *211:12 9.30717e-05
17 *207:48 *2151:A2 9.50342e-06
18 *207:57 *2151:A2 0.000152821
19 *207:61 *2151:A2 6.27438e-05
20 *210:20 *2053:B1 1.91597e-05
21 *210:20 *2151:A2 2.0514e-05
22 *210:24 *211:12 1.15688e-05
*RES
1 *2240:X *211:12 7.775 
2 *211:12 *2053:B1 3.775 
3 *211:12 *2151:A2 12.455 
*END

*D_NET *212 0.000757064
*CONN
*I *2199:D I *D sky130_fd_sc_hd__dfstp_2
*I *2241:X O *D sky130_fd_sc_hd__dlygate4sd3_1
*CAP
1 *2199:D 0.000198819
2 *2241:X 0.000198819
3 *2199:D *282:308 0
4 *2199:D *282:340 7.22354e-05
5 *2199:CLK *2199:D 7.58604e-05
6 *42:70 *2199:D 6.71882e-05
7 *81:43 *2199:D 7.23602e-05
8 *210:24 *2199:D 7.17811e-05
*RES
1 *2241:X *2199:D 11.115 
*END

*D_NET *213 0.00950133
*CONN
*I *2069:A_N I *D sky130_fd_sc_hd__nand2b_1
*I *2041:C I *D sky130_fd_sc_hd__or4_1
*I *2074:B I *D sky130_fd_sc_hd__nand2_1
*I *2063:B I *D sky130_fd_sc_hd__nand2b_1
*I *2040:B I *D sky130_fd_sc_hd__nor3_1
*I *2039:B I *D sky130_fd_sc_hd__nor2_1
*I *2105:B I *D sky130_fd_sc_hd__nand4b_1
*I *2143:A1 I *D sky130_fd_sc_hd__o22a_1
*I *2142:A1 I *D sky130_fd_sc_hd__o21ai_0
*I *2242:X O *D sky130_fd_sc_hd__dlygate4sd3_1
*CAP
1 *2069:A_N 0.000456618
2 *2041:C 0
3 *2074:B 0.00017869
4 *2063:B 3.98831e-06
5 *2040:B 5.35091e-05
6 *2039:B 0
7 *2105:B 0.000397615
8 *2143:A1 0.000371456
9 *2142:A1 5.0124e-05
10 *2242:X 0.000113919
11 *213:103 0.000276309
12 *213:92 0.000180348
13 *213:88 0.000162928
14 *213:62 0.00041838
15 *213:60 0.000150485
16 *213:58 0.000577283
17 *213:20 0.000869132
18 *213:8 0.000682137
19 *2040:B *2041:B 8.57024e-05
20 *2040:B *216:39 0.000160641
21 *2063:B *2069:B 1.12643e-05
22 *2069:A_N *2069:B 3.54384e-05
23 *2069:A_N *2197:RESET_B 0.000137578
24 *2074:B *2197:RESET_B 0
25 *2105:B *2105:D 0.000130774
26 *2105:B *2149:A2 2.6641e-05
27 *2105:B *216:8 0.00045014
28 *2105:B *216:30 7.73318e-05
29 *2142:A1 *219:16 9.34773e-06
30 *2143:A1 *222:16 5.25549e-05
31 *213:20 *2195:RESET_B 0.000161123
32 *213:58 *2195:RESET_B 7.63094e-05
33 *213:58 *2197:RESET_B 0.000127375
34 *213:62 *216:30 2.49909e-05
35 *213:88 *2039:A 9.53428e-06
36 *213:88 *216:30 8.34281e-06
37 *213:88 *216:39 9.27495e-05
38 *213:92 *2041:A 9.50342e-06
39 *213:92 *2197:RESET_B 0
40 *213:103 *2197:RESET_B 0
41 *2051:B *213:20 0.000144208
42 *2078:B *2069:A_N 1.20052e-05
43 *2094:B *2074:B 5.9339e-05
44 *2094:B *213:92 1.94805e-05
45 *2094:B *213:103 6.23462e-05
46 *2136:B1 *213:8 0.000156774
47 *2143:B2 *2143:A1 3.21081e-06
48 *2150:A1 *2142:A1 1.88602e-05
49 *2150:A1 *2143:A1 8.41131e-05
50 *2150:A2 *2143:A1 0.00055476
51 *2197:CLK *2074:B 0.000121437
52 *2243:A *2142:A1 7.23602e-05
53 *2245:A *2069:A_N 0.00015785
54 *2245:A *213:58 0.000158298
55 *2248:A *2105:B 0.000198051
56 *2249:A *213:20 6.90254e-05
57 *2249:A *213:58 4.16618e-05
58 *4:18 *213:20 3.17783e-05
59 *4:25 *213:20 7.89777e-05
60 *4:34 *213:20 3.11614e-05
61 *42:27 *2143:A1 1.32141e-05
62 *88:12 *2074:B 4.91189e-05
63 *93:8 *2063:B 6.03947e-06
64 *93:8 *2069:A_N 0.000378888
65 *120:10 *2105:B 4.00541e-06
66 *140:19 *2143:A1 1.38187e-05
67 *140:43 *2143:A1 0
68 *140:62 *2069:A_N 5.83121e-06
69 *162:10 *213:88 4.82863e-05
70 *162:14 *213:20 0
71 *175:11 *2142:A1 4.40812e-05
72 *175:11 *2143:A1 1.33954e-05
73 *175:11 *213:20 0.000170098
74 *175:47 *213:20 4.85929e-05
*RES
1 *2242:X *213:8 5.085 
2 *213:8 *213:20 13.645 
3 *213:20 *2142:A1 4.98 
4 *213:20 *2143:A1 8.18893 
5 *213:8 *213:58 3.21 
6 *213:58 *213:60 2 
7 *213:60 *213:62 0.45 
8 *213:62 *2105:B 10.915 
9 *213:62 *2039:B 1.6 
10 *213:60 *213:88 2.55 
11 *213:88 *213:92 2.615 
12 *213:92 *2040:B 5.085 
13 *213:92 *213:103 1.89 
14 *213:103 *2063:B 3.70875 
15 *213:103 *2074:B 7.425 
16 *213:88 *2041:C 1.6 
17 *213:58 *2069:A_N 11.25 
*END

*D_NET *214 0.000284514
*CONN
*I *2195:D I *D sky130_fd_sc_hd__dfrtp_1
*I *2243:X O *D sky130_fd_sc_hd__dlygate4sd3_1
*CAP
1 *2195:D 0.000108152
2 *2243:X 0.000108152
3 *2195:D *219:16 5.09835e-06
4 *140:43 *2195:D 6.31104e-05
*RES
1 *2243:X *2195:D 9.03 
*END

*D_NET *215 0.00233735
*CONN
*I *2346:A I *D sky130_fd_sc_hd__buf_2
*I *2277:A I *D sky130_fd_sc_hd__dlygate4sd3_1
*I *2172:Q O *D sky130_fd_sc_hd__dfrtp_1
*CAP
1 *2346:A 0.00082191
2 *2277:A 0.000102407
3 *2172:Q 0.000177516
4 *215:10 0.00110183
5 *2346:A *2073:A 6.28765e-05
6 *2346:A *2073:B 0
7 *2346:A *2365:A 0
8 *215:10 *2077:B1 2.87867e-05
9 *215:10 *2172:RESET_B 4.20162e-05
10 *215:10 *281:197 0
11 *2278:A *2346:A 0
12 *2278:A *215:10 0
*RES
1 *2172:Q *215:10 6.375 
2 *215:10 *2277:A 5.085 
3 *215:10 *2346:A 17.73 
*END

*D_NET *216 0.00611419
*CONN
*I *2074:A I *D sky130_fd_sc_hd__nand2_1
*I *2063:A_N I *D sky130_fd_sc_hd__nand2b_1
*I *2069:B I *D sky130_fd_sc_hd__nand2b_1
*I *2041:B I *D sky130_fd_sc_hd__or4_1
*I *2040:A I *D sky130_fd_sc_hd__nor3_1
*I *2039:A I *D sky130_fd_sc_hd__nor2_1
*I *2144:A I *D sky130_fd_sc_hd__nor2_1
*I *2105:C I *D sky130_fd_sc_hd__nand4b_1
*I *2244:X O *D sky130_fd_sc_hd__dlygate4sd3_1
*CAP
1 *2074:A 4.80513e-05
2 *2063:A_N 1.04051e-05
3 *2069:B 0.000243949
4 *2041:B 0.000101875
5 *2040:A 0
6 *2039:A 1.85694e-05
7 *2144:A 5.5851e-05
8 *2105:C 3.26875e-05
9 *2244:X 0
10 *216:63 0.000384066
11 *216:59 0.000289785
12 *216:46 0.000249448
13 *216:39 0.000155987
14 *216:30 0.000285015
15 *216:8 0.000290203
16 *216:4 0.000347674
17 *2069:B *2197:D 2.63406e-05
18 *2144:A *2105:A_N 2.19671e-05
19 *216:39 *2041:D 4.82863e-05
20 *216:39 *229:12 0.0001249
21 *216:59 *229:12 1.61831e-05
22 *2040:B *2041:B 8.57024e-05
23 *2040:B *216:39 0.000160641
24 *2063:B *2069:B 1.12643e-05
25 *2069:A_N *2069:B 3.54384e-05
26 *2094:B *2074:A 7.18452e-06
27 *2094:B *216:59 0
28 *2105:B *216:8 0.00045014
29 *2105:B *216:30 7.73318e-05
30 *2137:A1 *2144:A 0
31 *2146:A2 *2105:C 7.63883e-05
32 *2146:A2 *2144:A 8.59296e-05
33 *2149:B1 *2105:C 7.23533e-05
34 *2149:B1 *2144:A 0.000118527
35 *2245:A *2069:B 0.00043298
36 *2248:A *216:30 0.000196381
37 *2249:A *2069:B 0.00023301
38 *2256:A *2074:A 3.39069e-05
39 *2256:A *216:59 1.22676e-05
40 *93:8 *2069:B 0.000168824
41 *93:8 *216:63 9.01848e-05
42 *97:14 *2074:A 0.000141606
43 *97:14 *216:59 0.000160658
44 *160:14 *216:8 0.000233459
45 *160:14 *216:30 0.000343153
46 *213:62 *216:30 2.49909e-05
47 *213:88 *2039:A 9.53428e-06
48 *213:88 *216:30 8.34281e-06
49 *213:88 *216:39 9.27495e-05
*RES
1 *2244:X *216:4 1.6 
2 *216:4 *216:8 6.935 
3 *216:8 *2105:C 4.47 
4 *216:8 *2144:A 5.49 
5 *216:4 *216:30 4.26 
6 *216:30 *2039:A 1.96 
7 *216:30 *216:39 3.555 
8 *216:39 *2040:A 1.6 
9 *216:39 *216:46 0.615 
10 *216:46 *2041:B 3.085 
11 *216:46 *216:59 4.34 
12 *216:59 *216:63 4.175 
13 *216:63 *2069:B 8.4925 
14 *216:63 *2063:A_N 1.96 
15 *216:59 *2074:A 5.235 
*END

*D_NET *217 0.00123399
*CONN
*I *2146:B1 I *D sky130_fd_sc_hd__a21oi_1
*I *2245:X O *D sky130_fd_sc_hd__dlygate4sd3_1
*CAP
1 *2146:B1 0.000306603
2 *2245:X 0.000306603
3 *2146:B1 *222:16 0.00028447
4 *2136:B1 *2146:B1 8.23457e-05
5 *2194:CLK *2146:B1 4.77757e-05
6 *2195:CLK *2146:B1 0.000199498
7 *2246:A *2146:B1 6.69608e-06
*RES
1 *2245:X *2146:B1 13.59 
*END

*D_NET *218 0.000508683
*CONN
*I *2196:D I *D sky130_fd_sc_hd__dfrtp_1
*I *2246:X O *D sky130_fd_sc_hd__dlygate4sd3_1
*CAP
1 *2196:D 0.000139045
2 *2246:X 0.000139045
3 *2196:D *219:33 0.000114649
4 *124:25 *2196:D 0.000115945
*RES
1 *2246:X *2196:D 9.72 
*END

*D_NET *219 0.0101785
*CONN
*I *2051:A I *D sky130_fd_sc_hd__nand2_1
*I *2038:A I *D sky130_fd_sc_hd__inv_1
*I *2138:A1 I *D sky130_fd_sc_hd__a311oi_1
*I *2148:A I *D sky130_fd_sc_hd__nand2_1
*I *2145:A I *D sky130_fd_sc_hd__nand3_1
*I *2152:A I *D sky130_fd_sc_hd__or2_0
*I *2247:X O *D sky130_fd_sc_hd__dlygate4sd3_1
*CAP
1 *2051:A 0.000197418
2 *2038:A 2.41521e-05
3 *2138:A1 8.78705e-05
4 *2148:A 0.000285069
5 *2145:A 4.0513e-05
6 *2152:A 0.000469083
7 *2247:X 0
8 *219:33 0.000775795
9 *219:20 0.000953403
10 *219:16 0.00103761
11 *219:6 0.000966356
12 *219:4 0.000223993
13 *2051:A *2129:B2 4.99619e-05
14 *2152:A *2047:A 0.00048729
15 *219:16 *279:14 0.000120655
16 *2051:B *2051:A 0.000374859
17 *2137:A1 *2148:A 0.000181369
18 *2137:A1 *219:33 0.000183738
19 *2138:A2 *2138:A1 0.000122325
20 *2138:A2 *2152:A 9.23395e-05
21 *2138:A3 *2138:A1 8.8266e-05
22 *2138:C1 *2138:A1 3.77036e-05
23 *2138:C1 *219:16 9.80032e-06
24 *2141:C *2138:A1 0
25 *2141:C *219:16 8.40269e-05
26 *2142:A1 *219:16 9.34773e-06
27 *2145:B *2145:A 8.40269e-05
28 *2146:A1 *219:33 0
29 *2146:A2 *219:33 0
30 *2148:B *2148:A 0.000420937
31 *2151:A2 *2152:A 0
32 *2151:A3 *2152:A 0
33 *2152:B *2152:A 8.8266e-05
34 *2195:D *219:16 5.09835e-06
35 *2196:D *219:33 0.000114649
36 *2243:A *219:16 0.000117297
37 *2248:A *2148:A 4.36422e-06
38 *2251:A *2152:A 6.47594e-05
39 *2339:A *2138:A1 4.82919e-05
40 *4:34 *2051:A 0.000201688
41 *42:39 *2152:A 0.000160658
42 *81:22 *2152:A 9.81593e-05
43 *85:8 *2152:A 7.34364e-05
44 *88:18 *2148:A 0.000278889
45 *93:56 *2148:A 1.19928e-05
46 *124:14 *219:33 1.7678e-05
47 *124:25 *219:33 0.0003119
48 *124:61 *2148:A 9.68709e-05
49 *124:61 *219:33 0.000127416
50 *140:43 *219:16 0
51 *157:23 *2148:A 0.00023468
52 *159:8 *219:16 8.70223e-05
53 *159:38 *2038:A 2.61518e-05
54 *159:38 *2051:A 4.21973e-05
55 *159:38 *219:6 2.05056e-05
56 *159:38 *219:16 2.20394e-05
57 *164:21 *2152:A 0
58 *177:109 *219:33 0
59 *207:57 *2152:A 0
60 *207:67 *2152:A 0.000443492
61 *207:67 *219:33 7.30547e-05
*RES
1 *2247:X *219:4 1.6 
2 *219:4 *219:6 0.45 
3 *219:6 *219:16 15.34 
4 *219:16 *219:20 2.45 
5 *219:20 *2152:A 16.32 
6 *219:20 *219:33 11.07 
7 *219:33 *2145:A 4.395 
8 *219:33 *2148:A 12.765 
9 *219:16 *2138:A1 4.15 
10 *219:6 *2038:A 2.19625 
11 *219:4 *2051:A 11.285 
*END

*D_NET *220 0.000725639
*CONN
*I *2149:A2 I *D sky130_fd_sc_hd__a21oi_1
*I *2248:X O *D sky130_fd_sc_hd__dlygate4sd3_1
*CAP
1 *2149:A2 0.000251473
2 *2248:X 0.000251473
3 *2105:B *2149:A2 2.6641e-05
4 *2249:A *2149:A2 1.77595e-05
5 *4:10 *2149:A2 0.000178293
*RES
1 *2248:X *2149:A2 11.775 
*END

*D_NET *221 0.000903842
*CONN
*I *2197:D I *D sky130_fd_sc_hd__dfrtp_1
*I *2249:X O *D sky130_fd_sc_hd__dlygate4sd3_1
*CAP
1 *2197:D 0.000325708
2 *2249:X 0.000325708
3 *2197:D *2197:RESET_B 7.06865e-05
4 *2069:B *2197:D 2.63406e-05
5 *2197:CLK *2197:D 0.000107112
6 *2245:A *2197:D 4.82863e-05
7 *175:47 *2197:D 0
*RES
1 *2249:X *2197:D 11.745 
*END

*D_NET *222 0.0147401
*CONN
*I *2064:A I *D sky130_fd_sc_hd__or3_1
*I *2070:A I *D sky130_fd_sc_hd__or3_1
*I *2129:B2 I *D sky130_fd_sc_hd__a32oi_1
*I *2151:B2 I *D sky130_fd_sc_hd__a32o_1
*I *2075:A I *D sky130_fd_sc_hd__or3_1
*I *2120:A1 I *D sky130_fd_sc_hd__o21ai_0
*I *2094:A I *D sky130_fd_sc_hd__nand2_1
*I *2080:A1 I *D sky130_fd_sc_hd__o31ai_1
*I *2036:A I *D sky130_fd_sc_hd__inv_1
*I *2105:D I *D sky130_fd_sc_hd__nand4b_1
*I *2041:A I *D sky130_fd_sc_hd__or4_1
*I *2250:X O *D sky130_fd_sc_hd__dlygate4sd3_1
*CAP
1 *2064:A 4.0565e-05
2 *2070:A 0.000161996
3 *2129:B2 0.000476902
4 *2151:B2 0.000157917
5 *2075:A 0.000530238
6 *2120:A1 3.29916e-05
7 *2094:A 7.07087e-05
8 *2080:A1 0
9 *2036:A 0
10 *2105:D 0.000262017
11 *2041:A 0.000311001
12 *2250:X 2.69913e-05
13 *222:148 0.000239144
14 *222:113 0.000802331
15 *222:84 0.000395911
16 *222:78 0.000926095
17 *222:71 0.000233808
18 *222:58 0.000612103
19 *222:37 0.000828894
20 *222:16 0.00082009
21 *222:6 0.000655239
22 *2041:A *2197:RESET_B 1.73877e-05
23 *2041:A *282:409 0.000211895
24 *2064:A *2075:B 2.49909e-05
25 *2070:A *2070:B 0.000282827
26 *2070:A *229:112 5.23362e-05
27 *2129:B2 *2042:B 0.000120655
28 *2129:B2 *2128:B 0
29 *2151:B2 *282:351 0.000155033
30 *222:6 *280:16 0.000122184
31 *222:16 *280:16 1.14169e-05
32 *222:58 *2147:B1 0.000136877
33 *222:58 *229:30 2.49909e-05
34 *222:58 *229:32 0.000146251
35 *222:58 *229:73 0.000176647
36 *222:84 *2366:A 0.000158309
37 *222:148 *2075:B 5.05437e-05
38 *2051:A *2129:B2 4.99619e-05
39 *2052:B *2151:B2 2.92496e-05
40 *2057:C1 *2151:B2 0.000233557
41 *2064:C *2064:A 2.05056e-05
42 *2064:C *2075:A 0.000390466
43 *2064:C *222:148 7.22354e-05
44 *2094:B *2041:A 0
45 *2094:B *2070:A 0
46 *2094:B *2094:A 4.66108e-05
47 *2094:B *2120:A1 8.41307e-05
48 *2094:B *222:84 2.37828e-05
49 *2105:B *2105:D 0.000130774
50 *2120:A2 *2094:A 0.000119242
51 *2120:A2 *2120:A1 0.000110155
52 *2129:A1 *2129:B2 4.00541e-06
53 *2129:B1 *2129:B2 0.000130453
54 *2130:A3 *2129:B2 0.000124007
55 *2136:B1 *2041:A 0.000658111
56 *2136:B1 *222:16 1.5996e-05
57 *2136:B1 *222:37 2.93436e-05
58 *2143:A1 *222:16 5.25549e-05
59 *2143:B2 *222:6 4.11718e-05
60 *2143:B2 *222:16 5.05437e-05
61 *2143:B2 *222:113 1.49649e-05
62 *2146:A1 *222:16 0
63 *2146:B1 *222:16 0.00028447
64 *2150:A1 *222:16 9.5799e-06
65 *2150:A2 *222:16 2.44626e-05
66 *2244:A *222:37 6.98643e-05
67 *2244:A *222:58 4.54719e-05
68 *2245:A *2041:A 0.000230037
69 *2250:A *2129:B2 7.47457e-05
70 *42:10 *2129:B2 0.000158072
71 *83:10 *2129:B2 0.000313055
72 *83:10 *2151:B2 9.37731e-05
73 *85:19 *222:6 1.52352e-05
74 *98:10 *2070:A 0
75 *98:10 *2075:A 1.83847e-05
76 *100:34 *222:71 5.85076e-05
77 *100:34 *222:84 0
78 *140:43 *222:16 0.000537841
79 *140:62 *222:16 0.000168142
80 *140:62 *222:37 0.000132363
81 *140:62 *222:58 0.000176647
82 *157:23 *222:58 0
83 *157:23 *222:71 4.43871e-06
84 *160:14 *222:58 0.000116098
85 *161:8 *2041:A 0
86 *162:10 *2041:A 0.000114061
87 *177:99 *2151:B2 2.68721e-05
88 *177:99 *222:113 2.4997e-05
89 *177:109 *222:16 0
90 *177:109 *222:113 0
91 *180:10 *2070:A 6.28765e-05
92 *180:19 *2070:A 5.53249e-06
93 *181:86 *222:78 7.93276e-05
94 *181:86 *222:84 0.000165841
95 *181:127 *222:84 1.07797e-05
96 *213:92 *2041:A 9.50342e-06
*RES
1 *2250:X *222:6 2.74 
2 *222:6 *222:16 13.145 
3 *222:16 *2041:A 16.615 
4 *222:16 *222:37 1.635 
5 *222:37 *2105:D 7.08 
6 *222:37 *222:58 12.1962 
7 *222:58 *2036:A 1.6 
8 *222:58 *222:71 5.89 
9 *222:71 *2080:A1 1.6 
10 *222:71 *222:78 2.52 
11 *222:78 *222:84 10.225 
12 *222:84 *2094:A 3.1 
13 *222:84 *2120:A1 2.74 
14 *222:78 *2075:A 10.33 
15 *222:6 *222:113 4.76 
16 *222:113 *2151:B2 8.01 
17 *222:113 *2129:B2 14.895 
18 *2075:A *222:148 2.74 
19 *222:148 *2070:A 9.53 
20 *222:148 *2064:A 2.395 
*END

*D_NET *223 0.000251442
*CONN
*I *2198:D I *D sky130_fd_sc_hd__dfrtp_1
*I *2251:X O *D sky130_fd_sc_hd__dlygate4sd3_1
*CAP
1 *2198:D 6.82541e-05
2 *2251:X 6.82541e-05
3 *177:99 *2198:D 6.60042e-05
4 *177:109 *2198:D 4.89295e-05
*RES
1 *2251:X *2198:D 4.685 
*END

*D_NET *224 0.000572249
*CONN
*I *2317:A I *D sky130_fd_sc_hd__dlygate4sd3_1
*I *2252:X O *D sky130_fd_sc_hd__dlygate4sd3_1
*CAP
1 *2317:A 0.000145112
2 *2252:X 0.000145112
3 *2317:A *280:55 1.79916e-05
4 *2159:B1 *2317:A 5.83121e-06
5 *2160:B *2317:A 2.68037e-05
6 *150:14 *2317:A 0.000181361
7 *151:10 *2317:A 5.00391e-05
*RES
1 *2252:X *2317:A 9.975 
*END

*D_NET *225 0.00137556
*CONN
*I *2047:A I *D sky130_fd_sc_hd__nor2b_1
*I *2253:X O *D sky130_fd_sc_hd__dlygate4sd3_1
*CAP
1 *2047:A 0.000193842
2 *2253:X 0.000193842
3 *2152:A *2047:A 0.00048729
4 *81:22 *2047:A 0.000336589
5 *85:8 *2047:A 0.000163992
6 *210:24 *2047:A 0
*RES
1 *2253:X *2047:A 13.365 
*END

*D_NET *226 0.00469012
*CONN
*I *2314:A I *D sky130_fd_sc_hd__dlygate4sd3_1
*I *2347:A I *D sky130_fd_sc_hd__buf_2
*I *2173:Q O *D sky130_fd_sc_hd__dfrtp_1
*CAP
1 *2314:A 0.000194008
2 *2347:A 0.00215105
3 *2173:Q 0
4 *226:4 0.00234506
*RES
1 *2173:Q *226:4 1.6 
2 *226:4 *2347:A 30.715 
3 *226:4 *2314:A 8.465 
*END

*D_NET *227 0.000420916
*CONN
*I *2049:B1 I *D sky130_fd_sc_hd__a21o_1
*I *2254:X O *D sky130_fd_sc_hd__dlygate4sd3_1
*CAP
1 *2049:B1 0.000210458
2 *2254:X 0.000210458
*RES
1 *2254:X *2049:B1 6.08 
*END

*D_NET *228 0.000294308
*CONN
*I *2201:D I *D sky130_fd_sc_hd__dfrtp_1
*I *2255:X O *D sky130_fd_sc_hd__dlygate4sd3_1
*CAP
1 *2201:D 0.000123008
2 *2255:X 0.000123008
3 *2201:D *2049:A1 4.82919e-05
4 *2201:D *2201:RESET_B 0
*RES
1 *2255:X *2201:D 8.775 
*END

*D_NET *229 0.00951051
*CONN
*I *2070:B I *D sky130_fd_sc_hd__or3_1
*I *2064:B I *D sky130_fd_sc_hd__or3_1
*I *2075:B I *D sky130_fd_sc_hd__or3_1
*I *2078:A I *D sky130_fd_sc_hd__nand2_1
*I *2105:A_N I *D sky130_fd_sc_hd__nand4b_1
*I *2147:B1 I *D sky130_fd_sc_hd__a21oi_1
*I *2079:B I *D sky130_fd_sc_hd__nand2_1
*I *2101:B I *D sky130_fd_sc_hd__or3_1
*I *2097:B I *D sky130_fd_sc_hd__or3_1
*I *2040:C I *D sky130_fd_sc_hd__nor3_1
*I *2041:D I *D sky130_fd_sc_hd__or4_1
*I *2256:X O *D sky130_fd_sc_hd__dlygate4sd3_1
*CAP
1 *2070:B 0.000179201
2 *2064:B 0
3 *2075:B 9.31956e-05
4 *2078:A 0
5 *2105:A_N 0.000149506
6 *2147:B1 6.81741e-05
7 *2079:B 3.8202e-05
8 *2101:B 2.08101e-05
9 *2097:B 0.000456326
10 *2040:C 0
11 *2041:D 2.2219e-05
12 *2256:X 0
13 *229:114 9.31956e-05
14 *229:112 0.000347082
15 *229:90 0.000316703
16 *229:73 0.000343759
17 *229:32 0.000642692
18 *229:30 0.000541079
19 *229:26 0.000637042
20 *229:12 0.000308568
21 *229:6 0.000450175
22 *2064:A *2075:B 2.49909e-05
23 *2070:A *2070:B 0.000282827
24 *2070:A *229:112 5.23362e-05
25 *2075:C *229:26 3.18219e-05
26 *2075:C *229:112 7.88397e-05
27 *2079:A *229:32 2.49909e-05
28 *2082:A2 *2097:B 4.82919e-05
29 *2083:A2 *229:30 0.000577747
30 *2094:B *229:112 0
31 *2101:C *2079:B 3.95724e-05
32 *2101:C *229:32 1.34503e-05
33 *2102:A2 *2097:B 0
34 *2106:A1 *2097:B 0
35 *2122:A1 *2097:B 0
36 *2122:A2 *2097:B 0.000316134
37 *2122:A2 *229:32 6.07575e-06
38 *2122:B1 *2097:B 1.52184e-05
39 *2135:B *2097:B 0
40 *2144:A *2105:A_N 2.19671e-05
41 *2144:B *2105:A_N 2.97802e-05
42 *2144:B *2147:B1 3.82965e-06
43 *2144:B *229:90 1.96856e-05
44 *2145:C *229:90 0
45 *2148:B *229:90 0.000234973
46 *2149:B1 *2105:A_N 0.000159964
47 *88:26 *2097:B 6.57653e-06
48 *93:56 *229:90 0.000115453
49 *94:10 *2070:B 0
50 *97:14 *229:12 0.00012533
51 *97:14 *229:26 7.04021e-05
52 *100:23 *229:73 0
53 *100:23 *229:90 3.39151e-05
54 *101:6 *229:30 0.00116552
55 *101:6 *229:32 0.000380059
56 *140:62 *2105:A_N 3.11771e-06
57 *157:6 *229:32 1.00207e-05
58 *160:14 *2147:B1 8.53113e-06
59 *180:19 *2070:B 3.04982e-05
60 *181:24 *2070:B 0
61 *181:26 *2070:B 0
62 *181:26 *229:112 0
63 *181:28 *229:12 0
64 *181:28 *229:26 0
65 *181:28 *229:112 0
66 *181:30 *229:12 0
67 *181:100 *2097:B 0.00014598
68 *216:39 *2041:D 4.82863e-05
69 *216:39 *229:12 0.0001249
70 *216:59 *229:12 1.61831e-05
71 *222:58 *2147:B1 0.000136877
72 *222:58 *229:30 2.49909e-05
73 *222:58 *229:32 0.000146251
74 *222:58 *229:73 0.000176647
75 *222:148 *2075:B 5.05437e-05
*RES
1 *2256:X *229:6 3.6 
2 *229:6 *229:12 7.775 
3 *229:12 *2041:D 2.05 
4 *229:12 *2040:C 1.6 
5 *229:6 *229:26 3.165 
6 *229:26 *229:30 12.8 
7 *229:30 *229:32 4.245 
8 *229:32 *2097:B 13.325 
9 *229:32 *2101:B 1.96 
10 *229:32 *2079:B 2.77 
11 *229:30 *229:73 4.145 
12 *229:73 *2147:B1 5.235 
13 *229:73 *229:90 7.81 
14 *229:90 *2105:A_N 6.555 
15 *229:90 *2078:A 3.6 
16 *229:26 *229:112 3.165 
17 *229:112 *229:114 2 
18 *229:114 *2075:B 2.74 
19 *229:114 *2064:B 1.6 
20 *229:112 *2070:B 7.785 
*END

*D_NET *230 0.0017152
*CONN
*I *2042:B I *D sky130_fd_sc_hd__nor2_2
*I *2257:X O *D sky130_fd_sc_hd__dlygate4sd3_1
*CAP
1 *2042:B 0.000296878
2 *2257:X 0.000296878
3 *2042:B *2341:A 0
4 *2042:B *279:73 0
5 *2042:B *280:16 2.15594e-05
6 *2129:B1 *2042:B 0.000587143
7 *2129:B2 *2042:B 0.000120655
8 *42:10 *2042:B 0.000285738
9 *161:8 *2042:B 0.000106344
10 *173:11 *2042:B 0
*RES
1 *2257:X *2042:B 15.84 
*END

*D_NET *231 0.000286809
*CONN
*I *2341:A I *D sky130_fd_sc_hd__buf_6
*I *2258:X O *D sky130_fd_sc_hd__dlygate4sd3_1
*CAP
1 *2341:A 0.000143404
2 *2258:X 0.000143404
3 *2042:B *2341:A 0
4 *2130:B1 *2341:A 0
5 *108:10 *2341:A 0
*RES
1 *2258:X *2341:A 9.375 
*END

*D_NET *232 0.000577025
*CONN
*I *2286:A I *D sky130_fd_sc_hd__dlygate4sd3_1
*I *2259:X O *D sky130_fd_sc_hd__dlygate4sd3_1
*CAP
1 *2286:A 0.000245217
2 *2259:X 0.000245217
3 *2286:A *2110:S 8.65905e-05
4 *2286:A *2356:A 0
*RES
1 *2259:X *2286:A 11.415 
*END

*D_NET *233 0.000251609
*CONN
*I *2287:A I *D sky130_fd_sc_hd__dlygate4sd3_1
*I *2260:X O *D sky130_fd_sc_hd__dlygate4sd3_1
*CAP
1 *2287:A 3.20073e-05
2 *2260:X 3.20073e-05
3 *2287:A *2354:A 0.000120186
4 *2287:A *2356:A 6.74079e-05
*RES
1 *2260:X *2287:A 8.58 
*END

*D_NET *234 0.000581084
*CONN
*I *2312:A I *D sky130_fd_sc_hd__dlygate4sd3_1
*I *2261:X O *D sky130_fd_sc_hd__dlygate4sd3_1
*CAP
1 *2312:A 0.000276107
2 *2261:X 0.000276107
3 *2312:A *2181:RESET_B 2.88689e-05
*RES
1 *2261:X *2312:A 11.415 
*END

*D_NET *235 0.000532637
*CONN
*I *2313:A I *D sky130_fd_sc_hd__dlygate4sd3_1
*I *2262:X O *D sky130_fd_sc_hd__dlygate4sd3_1
*CAP
1 *2313:A 0.000207008
2 *2262:X 0.000207008
3 *2313:A *281:37 0
4 *2262:A *2313:A 0.000118621
*RES
1 *2262:X *2313:A 10.755 
*END

*D_NET *236 0.000185175
*CONN
*I *2319:A I *D sky130_fd_sc_hd__dlygate4sd3_1
*I *2263:X O *D sky130_fd_sc_hd__dlygate4sd3_1
*CAP
1 *2319:A 9.25874e-05
2 *2263:X 9.25874e-05
3 *2319:A *2366:A 0
*RES
1 *2263:X *2319:A 8.58 
*END

*D_NET *237 0.00340185
*CONN
*I *2348:A I *D sky130_fd_sc_hd__buf_2
*I *2300:A I *D sky130_fd_sc_hd__dlygate4sd3_1
*I *2174:Q O *D sky130_fd_sc_hd__dfrtp_1
*CAP
1 *2348:A 0.000849521
2 *2300:A 0.000146336
3 *2174:Q 2.08101e-05
4 *237:6 0.00101667
5 *2300:A *2174:RESET_B 0
6 *2300:A *2367:A 2.75229e-05
7 *2348:A *2367:A 0.001341
*RES
1 *2174:Q *237:6 1.96 
2 *237:6 *2300:A 7.94 
3 *237:6 *2348:A 22.06 
*END

*D_NET *238 0.000470648
*CONN
*I *2323:A I *D sky130_fd_sc_hd__dlygate4sd3_1
*I *2264:X O *D sky130_fd_sc_hd__dlygate4sd3_1
*CAP
1 *2323:A 0.000140041
2 *2264:X 0.000140041
3 *2323:A *2264:A 7.30505e-05
4 *2323:A *2364:A 0.000117516
*RES
1 *2264:X *2323:A 9.72 
*END

*D_NET *239 0.00025867
*CONN
*I *2321:A I *D sky130_fd_sc_hd__dlygate4sd3_1
*I *2265:X O *D sky130_fd_sc_hd__dlygate4sd3_1
*CAP
1 *2321:A 9.69671e-05
2 *2265:X 9.69671e-05
3 *2133:B *2321:A 6.47357e-05
*RES
1 *2265:X *2321:A 9.03 
*END

*D_NET *240 0.000419976
*CONN
*I *2327:A I *D sky130_fd_sc_hd__dlygate4sd3_1
*I *2266:X O *D sky130_fd_sc_hd__dlygate4sd3_1
*CAP
1 *2327:A 0.000152771
2 *2266:X 0.000152771
3 *2327:A *2354:A 4.70256e-05
4 *2327:A *2357:A 6.74079e-05
*RES
1 *2266:X *2327:A 9.72 
*END

*D_NET *241 0.000418166
*CONN
*I *2325:A I *D sky130_fd_sc_hd__dlygate4sd3_1
*I *2267:X O *D sky130_fd_sc_hd__dlygate4sd3_1
*CAP
1 *2325:A 0.000156843
2 *2267:X 0.000156843
3 *2325:A *281:175 4.40446e-05
4 *94:10 *2325:A 6.04361e-05
*RES
1 *2267:X *2325:A 9.72 
*END

*D_NET *242 0.000457455
*CONN
*I *2215:A I *D sky130_fd_sc_hd__dlygate4sd3_1
*I *2268:X O *D sky130_fd_sc_hd__dlygate4sd3_1
*CAP
1 *2215:A 0.000166989
2 *2268:X 0.000166989
3 *2215:A *2179:D 0
4 *2104:A2 *2215:A 0
5 *2135:A *2215:A 1.71013e-05
6 *2305:A *2215:A 0
7 *179:16 *2215:A 5.00443e-05
8 *179:22 *2215:A 5.63318e-05
*RES
1 *2268:X *2215:A 10.62 
*END

*D_NET *243 0.000290212
*CONN
*I *2329:A I *D sky130_fd_sc_hd__dlygate4sd3_1
*I *2269:X O *D sky130_fd_sc_hd__dlygate4sd3_1
*CAP
1 *2329:A 0.000145106
2 *2269:X 0.000145106
*RES
1 *2269:X *2329:A 9.375 
*END

*D_NET *244 6.82447e-05
*CONN
*I *2331:A I *D sky130_fd_sc_hd__dlygate4sd3_1
*I *2270:X O *D sky130_fd_sc_hd__dlygate4sd3_1
*CAP
1 *2331:A 3.41224e-05
2 *2270:X 3.41224e-05
*RES
1 *2270:X *2331:A 3.65 
*END

*D_NET *245 0.00102815
*CONN
*I *2217:A I *D sky130_fd_sc_hd__dlygate4sd3_1
*I *2271:X O *D sky130_fd_sc_hd__dlygate4sd3_1
*CAP
1 *2217:A 0.000392776
2 *2271:X 0.000392776
3 *2217:A *2110:S 0
4 *2217:A *2259:A 5.73739e-05
5 *2217:A *259:10 2.66935e-05
6 *2217:A *277:200 0
7 *2109:A1 *2217:A 8.44308e-05
8 *186:10 *2217:A 7.41023e-05
*RES
1 *2271:X *2217:A 14.145 
*END

*D_NET *246 0.0006061
*CONN
*I *2219:A I *D sky130_fd_sc_hd__dlygate4sd3_1
*I *2272:X O *D sky130_fd_sc_hd__dlygate4sd3_1
*CAP
1 *2219:A 0.000209731
2 *2272:X 0.000209731
3 *2219:A *270:6 5.06989e-05
4 *2120:A2 *2219:A 0.000135939
5 *181:127 *2219:A 0
*RES
1 *2272:X *2219:A 10.515 
*END

*D_NET *247 6.12828e-05
*CONN
*I *2221:A I *D sky130_fd_sc_hd__dlygate4sd3_1
*I *2273:X O *D sky130_fd_sc_hd__dlygate4sd3_1
*CAP
1 *2221:A 3.06414e-05
2 *2273:X 3.06414e-05
*RES
1 *2273:X *2221:A 3.65 
*END

*D_NET *248 0.00360631
*CONN
*I *2306:A I *D sky130_fd_sc_hd__dlygate4sd3_1
*I *2349:A I *D sky130_fd_sc_hd__buf_2
*I *2175:Q O *D sky130_fd_sc_hd__dfrtp_1
*CAP
1 *2306:A 0
2 *2349:A 0.000961156
3 *2175:Q 0.00018029
4 *248:6 0.00114145
5 *2349:A *2368:A 0.00130231
6 *248:6 *2087:A 2.11084e-05
7 *2307:A *2349:A 0
*RES
1 *2175:Q *248:6 4.465 
2 *248:6 *2349:A 27.515 
3 *248:6 *2306:A 1.6 
*END

*D_NET *249 0.000641691
*CONN
*I *2228:A I *D sky130_fd_sc_hd__dlygate4sd3_1
*I *2274:X O *D sky130_fd_sc_hd__dlygate4sd3_1
*CAP
1 *2228:A 0.000220992
2 *2274:X 0.000220992
3 *2228:A *282:365 0.000113222
4 *2056:A *2228:A 7.15997e-05
5 *2056:B *2228:A 1.48851e-05
*RES
1 *2274:X *2228:A 11.265 
*END

*D_NET *250 0.000439352
*CONN
*I *2226:A I *D sky130_fd_sc_hd__dlygate4sd3_1
*I *2275:X O *D sky130_fd_sc_hd__dlygate4sd3_1
*CAP
1 *2226:A 0.000219676
2 *2275:X 0.000219676
3 *2226:A *2189:RESET_B 0
4 *2226:A *2275:A 0
5 *2302:A *2226:A 0
*RES
1 *2275:X *2226:A 10.62 
*END

*D_NET *251 5.97061e-05
*CONN
*I *2223:A I *D sky130_fd_sc_hd__dlygate4sd3_1
*I *2276:X O *D sky130_fd_sc_hd__dlygate4sd3_1
*CAP
1 *2223:A 2.9853e-05
2 *2276:X 2.9853e-05
*RES
1 *2276:X *2223:A 3.65 
*END

*D_NET *252 0.00362078
*CONN
*I *2350:A I *D sky130_fd_sc_hd__buf_2
*I *2297:A I *D sky130_fd_sc_hd__dlygate4sd3_1
*I *2176:Q O *D sky130_fd_sc_hd__dfrtp_1
*CAP
1 *2350:A 0.00161281
2 *2297:A 0.000118043
3 *2176:Q 7.95331e-05
4 *252:6 0.00181039
5 *2297:A *277:122 0
*RES
1 *2176:Q *252:6 2.74 
2 *252:6 *2297:A 7.49 
3 *252:6 *2350:A 25.975 
*END

*D_NET *253 0.00241533
*CONN
*I *2351:A I *D sky130_fd_sc_hd__buf_2
*I *2283:A I *D sky130_fd_sc_hd__dlygate4sd3_1
*I *2177:Q O *D sky130_fd_sc_hd__dfrtp_1
*CAP
1 *2351:A 0.000903122
2 *2283:A 0.000104908
3 *2177:Q 0.000138101
4 *253:10 0.00114613
5 *2351:A *2093:A 6.55328e-05
6 *2351:A *2370:A 0
7 *253:10 *2370:A 0
8 trial_code[4] *2351:A 2.88357e-05
9 *2172:CLK *253:10 2.86975e-05
10 *2284:A *2351:A 0
11 *2284:A *253:10 0
*RES
1 *2177:Q *253:10 5.685 
2 *253:10 *2283:A 5.085 
3 *253:10 *2351:A 18.87 
*END

*D_NET *254 0.00307994
*CONN
*I *2352:A I *D sky130_fd_sc_hd__buf_2
*I *2288:A I *D sky130_fd_sc_hd__dlygate4sd3_1
*I *2178:Q O *D sky130_fd_sc_hd__dfrtp_1
*CAP
1 *2352:A 0.00108878
2 *2288:A 0
3 *2178:Q 0.000299027
4 *254:12 0.00138781
5 *2352:A *2099:A 0.000164398
6 *2289:A *2352:A 0
7 *42:204 *2352:A 0
8 *42:204 *254:12 0.000139933
*RES
1 *2178:Q *254:12 9.755 
2 *254:12 *2288:A 1.6 
3 *254:12 *2352:A 23.945 
*END

*D_NET *255 0.00395057
*CONN
*I *2058:A0 I *D sky130_fd_sc_hd__mux2_1
*I *2048:A2 I *D sky130_fd_sc_hd__a21boi_0
*I *2333:X O *D sky130_fd_sc_hd__buf_2
*CAP
1 *2058:A0 0.00119411
2 *2048:A2 0.000132013
3 *2333:X 0.000235174
4 *255:12 0.0015613
5 *2058:A0 *2059:A0 0
6 *2058:A0 *2059:S 0
7 *2058:A0 *2110:A1 0
8 *2058:A0 *2168:RESET_B 0
9 *2058:A0 *2354:A 0
10 *2058:A0 *2357:A 0.000486443
11 *2058:A0 *260:10 0.000124632
12 *2058:A0 *277:200 0
13 *2058:A0 *338:10 0
14 *255:12 *2354:A 6.2455e-05
15 *255:12 *2356:A 0
16 *255:12 *2357:A 5.94436e-05
17 data_gain[1] *255:12 2.33079e-05
18 *2167:D *2058:A0 4.23802e-05
19 *178:14 *2058:A0 2.93136e-05
*RES
1 *2333:X *255:12 9.665 
2 *255:12 *2048:A2 3.43 
3 *255:12 *2058:A0 29.93 
*END

*D_NET *256 0.00425203
*CONN
*I *2353:A I *D sky130_fd_sc_hd__buf_2
*I *2261:A I *D sky130_fd_sc_hd__dlygate4sd3_1
*I *2181:Q O *D sky130_fd_sc_hd__dfrtp_1
*CAP
1 *2353:A 0.00175398
2 *2261:A 0
3 *2181:Q 0.000222508
4 *256:10 0.00197649
5 *2353:A *2181:RESET_B 0.000101491
6 *256:10 *2181:RESET_B 0.000197565
*RES
1 *2181:Q *256:10 7.065 
2 *256:10 *2261:A 3.6 
3 *256:10 *2353:A 30.69 
*END

*D_NET *257 0.00374544
*CONN
*I *2259:A I *D sky130_fd_sc_hd__dlygate4sd3_1
*I *2354:A I *D sky130_fd_sc_hd__buf_2
*I *2182:Q O *D sky130_fd_sc_hd__dfrtp_1
*CAP
1 *2259:A 0.000410584
2 *2354:A 0.000992794
3 *2182:Q 0
4 *257:4 0.00140338
5 *2354:A *2168:RESET_B 0
6 *2354:A *2356:A 0.000651644
7 *2354:A *2357:A 0
8 *2354:A *260:10 0
9 *2058:A0 *2354:A 0
10 *2217:A *2259:A 5.73739e-05
11 *2287:A *2354:A 0.000120186
12 *2327:A *2354:A 4.70256e-05
13 *255:12 *2354:A 6.2455e-05
*RES
1 *2182:Q *257:4 1.6 
2 *257:4 *2354:A 27.185 
3 *257:4 *2259:A 7.585 
*END

*D_NET *258 0.00312128
*CONN
*I *2355:A I *D sky130_fd_sc_hd__buf_2
*I *2202:Q O *D sky130_fd_sc_hd__dfrtp_1
*CAP
1 *2355:A 0.00156064
2 *2202:Q 0.00156064
*RES
1 *2202:Q *2355:A 30.675 
*END

*D_NET *259 0.00322561
*CONN
*I *2271:A I *D sky130_fd_sc_hd__dlygate4sd3_1
*I *2356:A I *D sky130_fd_sc_hd__buf_2
*I *2167:Q O *D sky130_fd_sc_hd__dfrtp_1
*CAP
1 *2271:A 0
2 *2356:A 0.00105
3 *2167:Q 0.000146635
4 *259:10 0.00119664
5 *2356:A *2168:RESET_B 0
6 *2356:A *2357:A 0
7 *259:10 *2167:RESET_B 8.65961e-05
8 *259:10 *2168:RESET_B 0
9 *259:10 *277:200 0
10 *2217:A *259:10 2.66935e-05
11 *2286:A *2356:A 0
12 *2287:A *2356:A 6.74079e-05
13 *2354:A *2356:A 0.000651644
14 *255:12 *2356:A 0
*RES
1 *2167:Q *259:10 6.03 
2 *259:10 *2356:A 26.145 
3 *259:10 *2271:A 3.6 
*END

*D_NET *260 0.00278128
*CONN
*I *2266:A I *D sky130_fd_sc_hd__dlygate4sd3_1
*I *2357:A I *D sky130_fd_sc_hd__buf_2
*I *2168:Q O *D sky130_fd_sc_hd__dfrtp_1
*CAP
1 *2266:A 3.37585e-05
2 *2357:A 0.000704787
3 *2168:Q 0.000221154
4 *260:10 0.0009597
5 *260:10 *2168:RESET_B 4.82863e-05
6 data_gain[1] *2357:A 7.56675e-05
7 *2058:A0 *2357:A 0.000486443
8 *2058:A0 *260:10 0.000124632
9 *2327:A *2357:A 6.74079e-05
10 *2354:A *2357:A 0
11 *2354:A *260:10 0
12 *2356:A *2357:A 0
13 *255:12 *2357:A 5.94436e-05
*RES
1 *2168:Q *260:10 7.725 
2 *260:10 *2357:A 20.025 
3 *260:10 *2266:A 4.05 
*END

*D_NET *261 0.00768445
*CONN
*I *2049:A1 I *D sky130_fd_sc_hd__a21o_1
*I *2358:A I *D sky130_fd_sc_hd__buf_2
*I *2045:Y O *D sky130_fd_sc_hd__inv_1
*CAP
1 *2049:A1 0.00223732
2 *2358:A 0.000132057
3 *2045:Y 0
4 *261:4 0.00236938
5 *2049:A1 *2111:A1 0
6 *2049:A1 *2199:SET_B 8.53113e-06
7 *2049:A1 *2239:A 0.000104705
8 *2049:A1 *282:308 0
9 *2049:A1 *299:14 0.00259052
10 *2358:A *2045:A 5.95154e-06
11 *2358:A *2372:A 4.15656e-05
12 *2358:A *299:14 2.13569e-05
13 *2201:D *2049:A1 4.82919e-05
14 *2255:A *2049:A1 3.00381e-05
15 *81:49 *2049:A1 9.47454e-05
*RES
1 *2045:Y *261:4 1.6 
2 *261:4 *2358:A 3.5275 
3 *261:4 *2049:A1 42.7025 
*END

*D_NET *262 0.00290485
*CONN
*I *2359:A I *D sky130_fd_sc_hd__buf_2
*I *2054:X O *D sky130_fd_sc_hd__and2_0
*CAP
1 *2359:A 0.00143867
2 *2054:X 0.00143867
3 *2359:A *2054:B 2.75145e-05
*RES
1 *2054:X *2359:A 31.08 
*END

*D_NET *263 0.00391223
*CONN
*I *2270:A I *D sky130_fd_sc_hd__dlygate4sd3_1
*I *2360:A I *D sky130_fd_sc_hd__buf_2
*I *2183:Q O *D sky130_fd_sc_hd__dfrtp_1
*CAP
1 *2270:A 7.17872e-05
2 *2360:A 0.00168916
3 *2183:Q 0.000163663
4 *263:6 0.00192461
5 *2270:A *2062:B1 6.30072e-05
*RES
1 *2183:Q *263:6 3.43 
2 *263:6 *2360:A 27.16 
3 *263:6 *2270:A 6.98 
*END

*D_NET *264 0.00587671
*CONN
*I *2361:A I *D sky130_fd_sc_hd__buf_2
*I *2268:A I *D sky130_fd_sc_hd__dlygate4sd3_1
*I *2193:Q O *D sky130_fd_sc_hd__dfrtp_1
*CAP
1 *2361:A 0.00192126
2 *2268:A 0.000435646
3 *2193:Q 0.0023569
4 *2268:A *2193:RESET_B 0.000119457
5 *2104:A2 *2361:A 4.60584e-05
6 *2136:A1 *2268:A 6.5525e-05
7 *2136:B2 *2268:A 0.000118513
8 *2304:A *2361:A 0.000497437
9 *2305:A *2361:A 0.000272085
10 *179:46 *2268:A 4.38278e-05
*RES
1 *2193:Q *2268:A 13.17 
2 *2193:Q *2361:A 34.04 
*END

*D_NET *265 0.00694614
*CONN
*I *2362:A I *D sky130_fd_sc_hd__buf_2
*I *2230:A I *D sky130_fd_sc_hd__dlygate4sd3_1
*I *2194:Q O *D sky130_fd_sc_hd__dfrtp_1
*CAP
1 *2362:A 0.00163879
2 *2230:A 0.000281304
3 *2194:Q 0.0019201
4 *2230:A *282:210 6.74079e-05
5 *2362:A *2194:RESET_B 8.53011e-05
6 *2362:A *282:204 4.83032e-05
7 *2294:A *2362:A 4.21518e-05
8 *2343:A *2362:A 0.00286278
9 *42:80 *2230:A 0
*RES
1 *2194:Q *2230:A 11.79 
2 *2194:Q *2362:A 38.565 
*END

*D_NET *266 0.00301279
*CONN
*I *2059:A0 I *D sky130_fd_sc_hd__mux2_1
*I *2048:A1 I *D sky130_fd_sc_hd__a21boi_0
*I *2334:X O *D sky130_fd_sc_hd__buf_2
*CAP
1 *2059:A0 0.000510005
2 *2048:A1 3.59989e-05
3 *2334:X 0.00026181
4 *266:14 0.000807814
5 *2059:A0 *338:10 2.87867e-05
6 *266:14 *2048:B1_N 9.90602e-05
7 data_gain[1] *266:14 0
8 gain_latched[1] *266:14 4.82919e-05
9 *2058:A0 *2059:A0 0
10 *2334:A *266:14 2.0566e-05
11 *81:14 *2059:A0 0.00114701
12 *81:14 *266:14 5.34461e-05
*RES
1 *2334:X *266:14 8.04 
2 *266:14 *2048:A1 4.05 
3 *266:14 *2059:A0 16.965 
*END

*D_NET *267 0.00342953
*CONN
*I *2363:A I *D sky130_fd_sc_hd__buf_2
*I *2269:A I *D sky130_fd_sc_hd__dlygate4sd3_1
*I *2184:Q O *D sky130_fd_sc_hd__dfrtp_1
*CAP
1 *2363:A 0.00120403
2 *2269:A 3.39387e-05
3 *2184:Q 0.000328003
4 *267:10 0.00156598
5 *267:10 *2184:RESET_B 0.000193237
6 trial_code[1] *2363:A 2.92441e-05
7 *2335:A *2363:A 7.50972e-05
*RES
1 *2184:Q *267:10 8.76 
2 *267:10 *2269:A 4.05 
3 *267:10 *2363:A 23.22 
*END

*D_NET *268 0.00317024
*CONN
*I *2264:A I *D sky130_fd_sc_hd__dlygate4sd3_1
*I *2364:A I *D sky130_fd_sc_hd__buf_2
*I *2185:Q O *D sky130_fd_sc_hd__dfrtp_1
*CAP
1 *2264:A 0.000137627
2 *2364:A 0.000923456
3 *2185:Q 0
4 *268:4 0.00106108
5 *2264:A *340:10 0.000159372
6 *2323:A *2264:A 7.30505e-05
7 *2323:A *2364:A 0.000117516
8 *2332:A *2364:A 6.05989e-05
9 *181:14 *2364:A 0.000637539
*RES
1 *2185:Q *268:4 1.6 
2 *268:4 *2364:A 26.3 
3 *268:4 *2264:A 5.155 
*END

*D_NET *269 0.00430635
*CONN
*I *2365:A I *D sky130_fd_sc_hd__buf_2
*I *2267:A I *D sky130_fd_sc_hd__dlygate4sd3_1
*I *2186:Q O *D sky130_fd_sc_hd__dfrtp_1
*CAP
1 *2365:A 0.00145838
2 *2267:A 9.58359e-05
3 *2186:Q 3.98087e-05
4 *269:8 0.00159403
5 *2267:A *281:175 3.00381e-05
6 *2365:A *2072:B1 0
7 *2365:A *2073:B 0
8 *2365:A *281:186 0
9 *2365:A *281:197 0
10 *2118:B *2267:A 0.000121657
11 *2118:B *2365:A 7.23237e-05
12 *2171:CLK *2365:A 0.000369131
13 *2186:CLK *269:8 2.49909e-05
14 *2346:A *2365:A 0
15 *180:19 *2267:A 0.000175721
16 *180:30 *2267:A 4.22675e-05
17 *180:30 *2365:A 0.000282164
*RES
1 *2186:Q *269:8 4.05 
2 *269:8 *2267:A 6.705 
3 *269:8 *2365:A 29.595 
*END

*D_NET *270 0.00458471
*CONN
*I *2272:A I *D sky130_fd_sc_hd__dlygate4sd3_1
*I *2366:A I *D sky130_fd_sc_hd__buf_2
*I *2187:Q O *D sky130_fd_sc_hd__dfrtp_1
*CAP
1 *2272:A 4.00917e-05
2 *2366:A 0.00179307
3 *2187:Q 0.000122527
4 *270:6 0.00195569
5 *2366:A *2172:D 0
6 *2094:B *2366:A 5.06382e-06
7 *2095:A2 *2366:A 1.01155e-05
8 *2219:A *270:6 5.06989e-05
9 *2278:A *2366:A 0
10 *2319:A *2366:A 0
11 *4:10 *2366:A 0
12 *181:80 *2272:A 7.35284e-05
13 *181:80 *270:6 4.82919e-05
14 *181:127 *2366:A 0.000327314
15 *222:84 *2366:A 0.000158309
*RES
1 *2187:Q *270:6 3.775 
2 *270:6 *2366:A 36.185 
3 *270:6 *2272:A 2.395 
*END

*D_NET *271 0.00630658
*CONN
*I *2275:A I *D sky130_fd_sc_hd__dlygate4sd3_1
*I *2367:A I *D sky130_fd_sc_hd__buf_2
*I *2188:Q O *D sky130_fd_sc_hd__dfrtp_1
*CAP
1 *2275:A 9.44809e-05
2 *2367:A 0.00210165
3 *2188:Q 0.00219613
4 *2367:A *2188:RESET_B 0.000343977
5 data[5] *2367:A 5.8807e-05
6 *2174:CLK *2275:A 2.86975e-05
7 *2226:A *2275:A 0
8 *2300:A *2367:A 2.75229e-05
9 *2302:A *2275:A 0.000114326
10 *2348:A *2367:A 0.001341
*RES
1 *2188:Q *2367:A 35.94 
2 *2188:Q *2275:A 9.03 
*END

*D_NET *272 0.00626519
*CONN
*I *2368:A I *D sky130_fd_sc_hd__buf_2
*I *2273:A I *D sky130_fd_sc_hd__dlygate4sd3_1
*I *2189:Q O *D sky130_fd_sc_hd__dfrtp_1
*CAP
1 *2368:A 0.00211523
2 *2273:A 4.10363e-05
3 *2189:Q 0.000101882
4 *272:6 0.00225814
5 *2273:A *2088:B1 7.23602e-05
6 *2273:A *281:127 0.00011852
7 data[6] *2368:A 6.06899e-05
8 *2088:A2 *272:6 4.89295e-05
9 *2307:A *2273:A 0
10 *2308:A *2368:A 0.000146094
11 *2349:A *2368:A 0.00130231
*RES
1 *2189:Q *272:6 2.74 
2 *272:6 *2273:A 6.98 
3 *272:6 *2368:A 34.835 
*END

*D_NET *273 0.00549654
*CONN
*I *2369:A I *D sky130_fd_sc_hd__buf_2
*I *2276:A I *D sky130_fd_sc_hd__dlygate4sd3_1
*I *2190:Q O *D sky130_fd_sc_hd__dfrtp_1
*CAP
1 *2369:A 0.0019991
2 *2276:A 0.000173734
3 *2190:Q 0.000273827
4 *273:6 0.00244666
5 *2276:A *281:25 0.000197822
6 *2276:A *281:29 8.47289e-05
7 *273:6 *2092:B1 7.87074e-05
8 *2090:A *273:6 5.64111e-05
9 *2090:B *273:6 8.8266e-05
10 *2092:A2 *273:6 1.19928e-05
11 *2298:A *2369:A 8.52845e-05
12 *178:110 *2276:A 0
*RES
1 *2190:Q *273:6 6.535 
2 *273:6 *2276:A 9.32 
3 *273:6 *2369:A 31.84 
*END

*D_NET *274 0.00326617
*CONN
*I *2263:A I *D sky130_fd_sc_hd__dlygate4sd3_1
*I *2370:A I *D sky130_fd_sc_hd__buf_2
*I *2191:Q O *D sky130_fd_sc_hd__dfrtp_1
*CAP
1 *2263:A 0.000197275
2 *2370:A 0.00134791
3 *2191:Q 0
4 *274:4 0.00154519
5 *2370:A *2093:A 0
6 *2370:A *2096:B1 0
7 *2370:A *2371:A 0
8 *2370:A *282:107 8.42924e-05
9 *2370:A *282:109 4.23802e-05
10 *2093:B *2370:A 0
11 *2096:A1 *2370:A 0
12 *2284:A *2370:A 4.91189e-05
13 *2351:A *2370:A 0
14 *253:10 *2370:A 0
*RES
1 *2191:Q *274:4 1.6 
2 *274:4 *2370:A 28.715 
3 *274:4 *2263:A 4.465 
*END

*D_NET *275 0.00415392
*CONN
*I *2371:A I *D sky130_fd_sc_hd__buf_2
*I *2265:A I *D sky130_fd_sc_hd__dlygate4sd3_1
*I *2192:Q O *D sky130_fd_sc_hd__dfrtp_1
*CAP
1 *2371:A 0.00147892
2 *2265:A 1.76077e-05
3 *2192:Q 0.000121148
4 *275:10 0.00161767
5 *2265:A *2134:B1 8.53011e-05
6 *2371:A *2177:D 5.20968e-05
7 *2371:A *2191:D 5.18362e-05
8 *2371:A *282:107 0
9 *2093:B *2371:A 7.45712e-05
10 *2096:A1 *2371:A 8.98657e-05
11 *2096:A2 *2371:A 0
12 *2096:A2 *275:10 0
13 *2098:A1 *2265:A 4.90291e-05
14 *2098:A2 *275:10 0.000130964
15 *2131:B *275:10 1.79174e-05
16 *2133:B *2371:A 0
17 *2191:CLK *2371:A 0.00016017
18 *2370:A *2371:A 0
19 *179:109 *2371:A 0.000206817
*RES
1 *2192:Q *275:10 5.685 
2 *275:10 *2265:A 4.395 
3 *275:10 *2371:A 29.79 
*END

*D_NET *276 0.0103021
*CONN
*I *2121:B1 I *D sky130_fd_sc_hd__a22o_1
*I *2132:B1 I *D sky130_fd_sc_hd__a22o_1
*I *2134:B1 I *D sky130_fd_sc_hd__a22o_1
*I *2123:B1 I *D sky130_fd_sc_hd__a22o_1
*I *2119:B1 I *D sky130_fd_sc_hd__a22o_1
*I *2337:X O *D sky130_fd_sc_hd__clkbuf_2
*CAP
1 *2121:B1 5.58193e-05
2 *2132:B1 3.83266e-05
3 *2134:B1 0.000650325
4 *2123:B1 0.000236408
5 *2119:B1 0
6 *2337:X 0.000179311
7 *276:46 0.000787682
8 *276:33 0.00107243
9 *276:25 0.00158186
10 *276:12 0.000968354
11 *2121:B1 *2121:A1 4.80285e-05
12 *2134:B1 *2134:A1 0.000193244
13 *2134:B1 *2191:D 8.52972e-05
14 *2134:B1 *282:111 4.10627e-05
15 *276:12 *2119:A2 0.000383158
16 *276:12 *2186:RESET_B 0.000115589
17 *276:25 *2186:D 9.24881e-05
18 *276:25 *281:175 0
19 *2072:A2 *276:12 9.63461e-05
20 *2077:A2 *276:25 0.00016369
21 *2077:A2 *276:33 8.41015e-06
22 *2094:B *2121:B1 7.22354e-05
23 *2098:A1 *2134:B1 6.08319e-05
24 *2098:A2 *2134:B1 0.000196699
25 *2117:B2 *276:12 8.53011e-05
26 *2118:A *276:25 3.1562e-06
27 *2119:B2 *276:25 8.87018e-05
28 *2120:A2 *2123:B1 0
29 *2121:A2 *276:25 1.88602e-05
30 *2121:A2 *276:33 0.00103135
31 *2121:B2 *2121:B1 1.67131e-05
32 *2123:A1 *2123:B1 4.82863e-05
33 *2123:B2 *2123:B1 0.00013521
34 *2134:A2 *2134:B1 0.000439856
35 *2134:B2 *2134:B1 4.38662e-05
36 *2265:A *2134:B1 8.53011e-05
37 *2320:A *2134:B1 6.62684e-05
38 *2322:A *2134:B1 0.000264077
39 *95:6 *276:25 4.11678e-06
40 *115:10 *2134:B1 4.90291e-05
41 *124:61 *2123:B1 1.80446e-05
42 *124:76 *2123:B1 0.000493186
43 *124:76 *276:46 4.38511e-05
44 *124:93 *2134:B1 2.21606e-05
45 *124:93 *276:46 0.000123902
46 *180:30 *276:12 4.33166e-05
47 *181:100 *2123:B1 4.99619e-05
48 *188:10 *2123:B1 0
*RES
1 *2337:X *276:12 11.3 
2 *276:12 *2119:B1 1.6 
3 *276:12 *276:25 13.28 
4 *276:25 *276:33 2.90197 
5 *276:33 *2123:B1 10.1475 
6 *276:33 *276:46 2.0175 
7 *276:46 *2134:B1 18.6 
8 *276:46 *2132:B1 4.05 
9 *276:25 *2121:B1 5.1 
*END

*D_NET *277 0.0156336
*CONN
*I *2182:RESET_B I *D sky130_fd_sc_hd__dfrtp_1
*I *2168:RESET_B I *D sky130_fd_sc_hd__dfrtp_1
*I *2190:RESET_B I *D sky130_fd_sc_hd__dfrtp_1
*I *2167:RESET_B I *D sky130_fd_sc_hd__dfrtp_1
*I *2176:RESET_B I *D sky130_fd_sc_hd__dfrtp_1
*I *2202:RESET_B I *D sky130_fd_sc_hd__dfrtp_1
*I *2181:RESET_B I *D sky130_fd_sc_hd__dfrtp_1
*I *2175:RESET_B I *D sky130_fd_sc_hd__dfrtp_1
*I *2183:RESET_B I *D sky130_fd_sc_hd__dfrtp_1
*I *2169:RESET_B I *D sky130_fd_sc_hd__dfrtp_1
*I *2189:RESET_B I *D sky130_fd_sc_hd__dfrtp_1
*I *2188:RESET_B I *D sky130_fd_sc_hd__dfrtp_1
*I *2342:A I *D sky130_fd_sc_hd__buf_12
*I *2174:RESET_B I *D sky130_fd_sc_hd__dfrtp_1
*I *2170:RESET_B I *D sky130_fd_sc_hd__dfrtp_1
*I *2335:X O *D sky130_fd_sc_hd__buf_2
*CAP
1 *2182:RESET_B 0
2 *2168:RESET_B 0.000275091
3 *2190:RESET_B 0.000568252
4 *2167:RESET_B 0.000697032
5 *2176:RESET_B 0.000600668
6 *2202:RESET_B 0
7 *2181:RESET_B 0.00100147
8 *2175:RESET_B 4.90835e-05
9 *2183:RESET_B 5.35783e-05
10 *2169:RESET_B 0.000521844
11 *2189:RESET_B 0.000645672
12 *2188:RESET_B 0.000600103
13 *2342:A 9.63644e-05
14 *2174:RESET_B 0.000678156
15 *2170:RESET_B 0.000132759
16 *2335:X 0.00136696
17 *277:200 0.000357215
18 *277:122 0.000807299
19 *277:120 0.000819456
20 *277:88 0.000585607
21 *277:84 0.000643483
22 *277:18 0.000901866
23 *277:12 0.00172662
24 *2168:RESET_B *2182:D 5.07601e-05
25 *2169:RESET_B *2169:D 0
26 *2174:RESET_B *2066:A 4.23417e-05
27 *2174:RESET_B *2174:D 0
28 *2174:RESET_B *281:153 0
29 *2175:RESET_B *2175:D 4.31782e-05
30 *2181:RESET_B *281:37 0
31 *2190:RESET_B *2092:A1 0.000167319
32 *2190:RESET_B *2176:D 8.28383e-05
33 *277:84 *281:114 0.000206591
34 *277:88 *2087:B 4.99524e-05
35 *277:88 *281:114 8.25041e-05
36 *277:120 *2060:A 0
37 *277:122 *281:29 0
38 *277:122 *281:31 0
39 *2058:A0 *2168:RESET_B 0
40 *2058:A0 *277:200 0
41 *2088:A2 *2189:RESET_B 7.95799e-05
42 *2088:A2 *277:84 0.000125939
43 *2090:A *2190:RESET_B 0.00015737
44 *2090:B *2190:RESET_B 0.00015737
45 *2109:A1 *2167:RESET_B 0.000134515
46 *2174:CLK *2188:RESET_B 9.13537e-05
47 *2174:CLK *2189:RESET_B 4.5506e-05
48 *2176:CLK *2190:RESET_B 3.39496e-05
49 *2181:CLK *2167:RESET_B 3.33839e-05
50 *2188:D *2189:RESET_B 4.18603e-06
51 *2217:A *277:200 0
52 *2224:A *2190:RESET_B 0
53 *2226:A *2189:RESET_B 0
54 *2291:A *2170:RESET_B 7.11301e-05
55 *2291:A *2174:RESET_B 2.49909e-05
56 *2293:A *2174:RESET_B 0
57 *2297:A *277:122 0
58 *2300:A *2174:RESET_B 0
59 *2310:A *277:120 0
60 *2312:A *2181:RESET_B 2.88689e-05
61 *2353:A *2181:RESET_B 0.000101491
62 *2354:A *2168:RESET_B 0
63 *2356:A *2168:RESET_B 0
64 *2367:A *2188:RESET_B 0.000343977
65 *178:110 *2190:RESET_B 1.34503e-05
66 *180:63 *2189:RESET_B 0
67 *180:65 *2189:RESET_B 0
68 *256:10 *2181:RESET_B 0.000197565
69 *259:10 *2167:RESET_B 8.65961e-05
70 *259:10 *2168:RESET_B 0
71 *259:10 *277:200 0
72 *260:10 *2168:RESET_B 4.82863e-05
*RES
1 *2335:X *277:12 27.77 
2 *277:12 *277:18 8.44 
3 *277:18 *2170:RESET_B 2.1225 
4 *277:18 *2174:RESET_B 12.715 
5 *277:12 *2342:A 3.085 
6 *2174:RESET_B *2188:RESET_B 4.14 
7 *2188:RESET_B *2189:RESET_B 10.945 
8 *2189:RESET_B *277:84 6.6425 
9 *277:84 *277:88 6.165 
10 *277:88 *2169:RESET_B 4.655 
11 *277:88 *2183:RESET_B 2.7425 
12 *277:84 *2175:RESET_B 2.7425 
13 *2169:RESET_B *277:120 7.91 
14 *277:120 *277:122 6.99 
15 *277:122 *2181:RESET_B 9.5825 
16 *277:122 *2202:RESET_B 2 
17 *277:120 *2176:RESET_B 2.3975 
18 *2181:RESET_B *2167:RESET_B 14.155 
19 *2176:RESET_B *2190:RESET_B 12.595 
20 *2167:RESET_B *277:200 3.38 
21 *277:200 *2168:RESET_B 6.6875 
22 *277:200 *2182:RESET_B 2 
*END

*D_NET *278 0.00449944
*CONN
*I *2115:B1 I *D sky130_fd_sc_hd__a22o_1
*I *2117:B1 I *D sky130_fd_sc_hd__a22o_1
*I *2337:A I *D sky130_fd_sc_hd__clkbuf_2
*I *2125:B1 I *D sky130_fd_sc_hd__a22o_1
*I *2127:B1 I *D sky130_fd_sc_hd__a22o_1
*I *2338:X O *D sky130_fd_sc_hd__clkbuf_2
*CAP
1 *2115:B1 7.78823e-05
2 *2117:B1 0
3 *2337:A 9.09147e-05
4 *2125:B1 0
5 *2127:B1 2.11983e-05
6 *2338:X 0.000285477
7 *278:32 0.000432647
8 *278:21 0.000602938
9 *278:10 0.000606935
10 *278:6 0.000687891
11 *2115:B1 *2115:A2 4.77807e-05
12 *2337:A *2119:A2 2.06497e-05
13 *278:10 *279:90 0.000237698
14 *278:10 *279:94 2.97004e-06
15 *278:21 *279:94 9.49771e-05
16 *278:32 *2065:B1 0.000112589
17 *278:32 *279:94 1.01661e-05
18 *278:32 *279:109 3.93872e-05
19 *2062:A2 *278:10 0.000138106
20 *2065:A2 *278:32 0.00026272
21 *2070:C *278:32 0
22 *2086:B1 *2127:B1 4.82919e-05
23 *2114:B *278:10 0
24 *2114:B *278:21 0
25 *2114:B *278:32 0
26 *2115:B2 *278:10 9.10613e-05
27 *2117:B2 *2337:A 4.90227e-05
28 *2124:B1 *278:21 4.49585e-05
29 *2124:B1 *278:32 1.94723e-05
30 *2125:A1 *278:21 0.000162332
31 *2125:A1 *278:32 9.50342e-06
32 *2126:B1 *278:10 2.60908e-05
33 *2127:B2 *278:10 0.000141599
34 *180:65 *278:10 0
35 *181:18 *278:32 8.47393e-05
36 *181:24 *278:32 0
37 *190:12 *278:21 4.94404e-05
*RES
1 *2338:X *278:6 5.5 
2 *278:6 *278:10 10.01 
3 *278:10 *2127:B1 4.05 
4 *278:10 *278:21 5.715 
5 *278:21 *2125:B1 3.6 
6 *278:21 *278:32 10.265 
7 *278:32 *2337:A 3.085 
8 *278:32 *2117:B1 1.6 
9 *278:6 *2115:B1 2.74 
*END

*D_NET *279 0.0129575
*CONN
*I *2127:A2 I *D sky130_fd_sc_hd__a22o_1
*I *2119:A2 I *D sky130_fd_sc_hd__a22o_1
*I *2117:A2 I *D sky130_fd_sc_hd__a22o_1
*I *2125:A2 I *D sky130_fd_sc_hd__a22o_1
*I *2115:A2 I *D sky130_fd_sc_hd__a22o_1
*I *2128:B I *D sky130_fd_sc_hd__nand2_1
*I *2130:A2 I *D sky130_fd_sc_hd__o31ai_1
*I *2113:B I *D sky130_fd_sc_hd__nor3b_1
*I *2339:X O *D sky130_fd_sc_hd__buf_4
*CAP
1 *2127:A2 0
2 *2119:A2 0.000556571
3 *2117:A2 0
4 *2125:A2 3.15766e-05
5 *2115:A2 6.68725e-05
6 *2128:B 0.000316598
7 *2130:A2 0
8 *2113:B 5.80075e-05
9 *2339:X 0.00114519
10 *279:109 0.000866
11 *279:94 0.000540351
12 *279:90 0.000570409
13 *279:73 0.00125244
14 *279:50 0.00118231
15 *279:41 0.000238224
16 *279:14 0.00139021
17 *2113:B *280:16 6.43127e-05
18 *2128:B *280:16 6.00081e-05
19 *279:41 *2247:A 1.92979e-05
20 *279:41 *280:16 7.28902e-05
21 *279:50 *280:16 1.54111e-05
22 *279:73 *280:16 2.42236e-05
23 *279:73 *281:10 0
24 *279:73 *281:92 0
25 *279:90 *2115:A1 8.43622e-05
26 *279:109 *2065:B1 7.51327e-05
27 *279:109 *340:10 5.31158e-06
28 *2042:B *279:73 0
29 *2043:A *279:14 6.49671e-05
30 *2051:B *2113:B 1.92979e-05
31 *2062:A2 *279:90 0.000136679
32 *2065:A2 *2125:A2 4.9253e-06
33 *2065:A2 *279:109 0.000473655
34 *2086:B1 *279:90 5.83121e-06
35 *2088:A2 *279:90 1.47347e-05
36 *2115:B1 *2115:A2 4.77807e-05
37 *2115:B2 *279:73 9.12494e-06
38 *2115:B2 *279:90 0.000103464
39 *2117:B2 *2119:A2 8.65091e-05
40 *2125:A1 *279:94 8.97642e-05
41 *2128:A *2128:B 5.05297e-06
42 *2129:A1 *2128:B 4.85494e-05
43 *2129:A2 *2113:B 1.47256e-05
44 *2129:A2 *279:41 2.87395e-05
45 *2129:A2 *279:50 4.78992e-05
46 *2129:A3 *2128:B 3.00381e-05
47 *2129:B1 *2128:B 0.000160641
48 *2129:B1 *279:41 1.79536e-05
49 *2129:B2 *2128:B 0
50 *2130:A1 *2113:B 4.40832e-05
51 *2130:A1 *279:41 8.40213e-05
52 *2130:A3 *2128:B 0.000116165
53 *2138:C1 *279:14 2.49909e-05
54 *2141:A *279:14 4.21973e-05
55 *2141:C *279:14 0.000160118
56 *2175:CLK *279:90 0
57 *2190:CLK *2128:B 7.59035e-05
58 *2190:D *279:73 0
59 *2222:A *279:90 4.91189e-05
60 *2224:A *279:73 6.73751e-05
61 *2225:A *2128:B 0
62 *2225:A *279:73 8.23457e-05
63 *2330:A *2119:A2 5.19006e-06
64 *2337:A *2119:A2 2.06497e-05
65 *42:10 *279:73 3.75492e-05
66 *42:27 *279:14 0.000368838
67 *42:27 *279:41 6.28203e-05
68 *42:31 *279:14 1.88904e-05
69 *85:19 *2113:B 4.9253e-06
70 *108:10 *279:73 0
71 *159:38 *2113:B 1.79483e-05
72 *180:61 *279:109 7.24866e-05
73 *180:63 *279:94 0.000131863
74 *180:63 *279:109 2.97004e-06
75 *180:65 *279:94 7.16263e-05
76 *180:110 *279:109 0.000205182
77 *190:12 *279:94 9.14049e-05
78 *207:67 *279:14 0.000163809
79 *219:16 *279:14 0.000120655
80 *276:12 *2119:A2 0.000383158
81 *278:10 *279:90 0.000237698
82 *278:10 *279:94 2.97004e-06
83 *278:21 *279:94 9.49771e-05
84 *278:32 *279:94 1.01661e-05
85 *278:32 *279:109 3.93872e-05
*RES
1 *2339:X *279:14 10.5735 
2 *279:14 *2113:B 5.56625 
3 *279:14 *279:41 4.31607 
4 *279:41 *2130:A2 1.6 
5 *279:41 *279:50 2.9675 
6 *279:50 *2128:B 10.08 
7 *279:50 *279:73 17.335 
8 *279:73 *2115:A2 4.74 
9 *279:73 *279:90 10.82 
10 *279:90 *279:94 7.97 
11 *279:94 *2125:A2 4.05 
12 *279:94 *279:109 10.715 
13 *279:109 *2117:A2 1.6 
14 *279:109 *2119:A2 13.73 
15 *279:90 *2127:A2 1.6 
*END

*D_NET *280 0.0120048
*CONN
*I *2058:S I *D sky130_fd_sc_hd__mux2_1
*I *2059:S I *D sky130_fd_sc_hd__mux2_1
*I *2158:B I *D sky130_fd_sc_hd__nand3_1
*I *2161:A1 I *D sky130_fd_sc_hd__a21oi_1
*I *2154:A1 I *D sky130_fd_sc_hd__a21bo_1
*I *2153:B I *D sky130_fd_sc_hd__nand3_1
*I *2340:X O *D sky130_fd_sc_hd__clkbuf_2
*CAP
1 *2058:S 3.24823e-05
2 *2059:S 0.000419275
3 *2158:B 0.000114997
4 *2161:A1 0.000165739
5 *2154:A1 0.000187917
6 *2153:B 0.000462607
7 *2340:X 0.00144458
8 *280:88 0.000519674
9 *280:55 0.000577014
10 *280:51 0.000486685
11 *280:28 0.00131591
12 *280:16 0.00221746
13 *2059:S *2110:A1 0.000166346
14 *2059:S *2182:D 6.55328e-05
15 *280:16 *2055:A 0
16 *280:16 *2247:A 0
17 *280:28 *2164:RESET_B 3.92519e-05
18 *280:28 *282:365 9.39796e-05
19 *2042:B *280:16 2.15594e-05
20 *2056:A *280:28 0.00016148
21 *2058:A0 *2059:S 0
22 *2113:B *280:16 6.43127e-05
23 *2128:B *280:16 6.00081e-05
24 *2129:B1 *280:16 7.21296e-06
25 *2130:A1 *280:16 2.28491e-05
26 *2130:A3 *280:16 0.000117832
27 *2153:A *2153:B 2.11921e-05
28 *2154:A2 *2154:A1 0.000155608
29 *2156:B *2161:A1 2.97561e-05
30 *2158:C *2161:A1 4.66108e-05
31 *2159:B1 *280:55 7.11365e-05
32 *2163:B2 *2161:A1 4.82863e-05
33 *2165:CLK *2153:B 7.95969e-05
34 *2165:D *2153:B 0.0001249
35 *2167:D *2059:S 6.47357e-05
36 *2190:CLK *280:16 0
37 *2229:A *2153:B 9.47911e-05
38 *2234:A *2158:B 9.27434e-05
39 *2234:A *280:51 2.98587e-05
40 *2235:A *2153:B 8.35157e-05
41 *2238:A *2158:B 0
42 *2250:A *280:16 1.83847e-05
43 *2274:A *280:28 4.77757e-05
44 *2317:A *280:55 1.79916e-05
45 *42:10 *280:16 0.000181383
46 *81:14 *2059:S 0.0003056
47 *81:14 *280:16 0.000557803
48 *85:19 *280:16 0.000141361
49 *148:10 *2161:A1 5.16348e-05
50 *148:14 *2161:A1 3.21271e-05
51 *148:20 *2153:B 1.76702e-05
52 *150:14 *2153:B 9.34295e-05
53 *150:14 *2154:A1 2.62602e-05
54 *150:14 *280:55 2.86691e-05
55 *151:10 *2161:A1 9.34309e-05
56 *178:10 *280:16 0
57 *178:14 *2059:S 9.23804e-06
58 *178:14 *280:16 0
59 *178:20 *2058:S 7.44252e-05
60 *178:20 *280:28 4.77807e-05
61 *178:20 *280:88 0.00014714
62 *198:8 *280:55 0.000159179
63 *198:10 *2158:B 0
64 *198:10 *2161:A1 0
65 *198:43 *2158:B 0
66 *198:43 *2161:A1 0
67 *203:23 *2158:B 0
68 *222:6 *280:16 0.000122184
69 *222:16 *280:16 1.14169e-05
70 *279:41 *280:16 7.28902e-05
71 *279:50 *280:16 1.54111e-05
72 *279:73 *280:16 2.42236e-05
*RES
1 *2340:X *280:16 30.035 
2 *280:16 *280:28 14.42 
3 *280:28 *2153:B 15.835 
4 *280:28 *280:51 2.655 
5 *280:51 *280:55 6.245 
6 *280:55 *2154:A1 4.48 
7 *280:55 *2161:A1 8.795 
8 *280:51 *2158:B 5.49 
9 *280:16 *280:88 1.485 
10 *280:88 *2059:S 15.65 
11 *280:88 *2058:S 2.395 
*END

*D_NET *281 0.0243438
*CONN
*I *2066:B I *D sky130_fd_sc_hd__nor2_1
*I *2067:A1 I *D sky130_fd_sc_hd__a21oi_1
*I *2073:B I *D sky130_fd_sc_hd__nor2_1
*I *2068:B I *D sky130_fd_sc_hd__nor2_1
*I *2072:A1 I *D sky130_fd_sc_hd__a21oi_1
*I *2077:A1 I *D sky130_fd_sc_hd__a21oi_1
*I *2084:B I *D sky130_fd_sc_hd__nor2_1
*I *2085:A1 I *D sky130_fd_sc_hd__a21oi_1
*I *2088:A1 I *D sky130_fd_sc_hd__a21oi_1
*I *2087:B I *D sky130_fd_sc_hd__nor2_1
*I *2062:A1 I *D sky130_fd_sc_hd__a21oi_1
*I *2060:B I *D sky130_fd_sc_hd__nor2_1
*I *2091:B I *D sky130_fd_sc_hd__nor2_1
*I *2202:D I *D sky130_fd_sc_hd__dfrtp_1
*I *2109:S I *D sky130_fd_sc_hd__mux2_1
*I *2110:S I *D sky130_fd_sc_hd__mux2_1
*I *2092:A1 I *D sky130_fd_sc_hd__a21oi_1
*I *2341:X O *D sky130_fd_sc_hd__buf_6
*CAP
1 *2066:B 0
2 *2067:A1 2.0471e-05
3 *2073:B 0.000384026
4 *2068:B 0.000245707
5 *2072:A1 0.00015772
6 *2077:A1 0.000282
7 *2084:B 0.000151429
8 *2085:A1 0.000450377
9 *2088:A1 0
10 *2087:B 4.31846e-05
11 *2062:A1 0
12 *2060:B 0.0001223
13 *2091:B 5.5539e-05
14 *2202:D 0.000122518
15 *2109:S 0
16 *2110:S 0.0011138
17 *2092:A1 0.000217548
18 *2341:X 0.000395209
19 *281:197 0.000888359
20 *281:186 0.000590949
21 *281:175 0.00167277
22 *281:159 0.00145931
23 *281:153 0.000543766
24 *281:129 0.000601806
25 *281:127 0.000591186
26 *281:114 0.000447206
27 *281:101 0.000486987
28 *281:92 0.00086365
29 *281:37 0.00165543
30 *281:31 0.000936362
31 *281:29 0.000694501
32 *281:25 0.000767566
33 *281:10 0.000580935
34 *281:8 0.00107704
35 *2073:B *2073:A 8.65905e-05
36 *2077:A1 *2077:B1 8.64599e-05
37 *2085:A1 *2085:B1 0.000423077
38 *2087:B *2062:B1 4.77807e-05
39 *2087:B *2087:A 1.57817e-05
40 *2110:S *2109:A0 8.64421e-05
41 *2110:S *2110:A0 0.000501921
42 *281:29 *2092:B1 0
43 *281:29 *2176:D 0.00011852
44 *281:37 *2109:A0 8.81829e-05
45 *281:92 *2115:A1 6.05913e-05
46 *281:101 *2062:B1 0.000308597
47 *281:114 *2087:A 2.5571e-05
48 *281:114 *2088:B1 5.53249e-06
49 *281:114 *2175:D 0
50 *281:127 *2088:B1 1.26548e-05
51 *281:153 *2174:D 0.000300109
52 *281:159 *2067:B1 0.00023701
53 *281:175 *2065:B1 8.2126e-05
54 *281:175 *2076:B1 5.02539e-05
55 *281:175 *2121:A1 1.56428e-05
56 *281:175 *336:10 4.5758e-05
57 *281:186 *2077:B1 0
58 *281:197 *2077:B1 0
59 *2062:A2 *281:92 0.000203396
60 *2065:A1 *281:175 0.000112349
61 *2067:A2 *281:175 0.000134314
62 *2072:A2 *2072:A1 4.66108e-05
63 *2077:A2 *2077:A1 4.77769e-05
64 *2094:B *281:175 8.40213e-05
65 *2109:A1 *2110:S 0.000122801
66 *2174:RESET_B *281:153 0
67 *2181:RESET_B *281:37 0
68 *2183:CLK *281:92 0.000156155
69 *2190:RESET_B *2092:A1 0.000167319
70 *2202:CLK *2202:D 4.8854e-05
71 *2202:CLK *281:29 0
72 *2202:CLK *281:31 0
73 *2214:A *281:92 4.23878e-05
74 *2217:A *2110:S 0
75 *2224:A *2092:A1 0
76 *2260:A *2110:S 0
77 *2262:A *281:37 0
78 *2267:A *281:175 3.00381e-05
79 *2273:A *281:127 0.00011852
80 *2276:A *281:25 0.000197822
81 *2276:A *281:29 8.47289e-05
82 *2278:A *2073:B 4.99619e-05
83 *2286:A *2110:S 8.65905e-05
84 *2292:A *281:159 4.77719e-05
85 *2293:A *281:153 2.57358e-05
86 *2293:A *281:159 0.000400984
87 *2298:A *2091:B 4.6368e-06
88 *2298:A *281:29 0
89 *2299:A *281:29 0
90 *2301:A *2084:B 0.00012657
91 *2302:A *2085:A1 3.31348e-05
92 *2302:A *281:127 9.84957e-05
93 *2302:A *281:153 0.000463444
94 *2307:A *281:114 0
95 *2313:A *281:37 0
96 *2325:A *281:175 4.40446e-05
97 *2346:A *2073:B 0
98 *2365:A *2073:B 0
99 *2365:A *281:186 0
100 *2365:A *281:197 0
101 *178:104 *281:29 0
102 *178:110 *2092:A1 0.000384049
103 *178:110 *281:10 0.000186099
104 *178:110 *281:92 8.53113e-06
105 *181:24 *281:175 0.000201508
106 *196:6 *2085:A1 2.78553e-05
107 *215:10 *281:197 0
108 *276:25 *281:175 0
109 *277:84 *281:114 0.000206591
110 *277:88 *2087:B 4.99524e-05
111 *277:88 *281:114 8.25041e-05
112 *277:122 *281:29 0
113 *277:122 *281:31 0
114 *279:73 *281:10 0
115 *279:73 *281:92 0
*RES
1 *2341:X *281:8 9.225 
2 *281:8 *281:10 2.145 
3 *281:10 *2092:A1 8.67 
4 *281:10 *281:25 6.59 
5 *281:25 *281:29 8.48 
6 *281:29 *281:31 4.44 
7 *281:31 *281:37 11.24 
8 *281:37 *2110:S 23.885 
9 *281:37 *2109:S 1.6 
10 *281:31 *2202:D 5.43 
11 *281:29 *2091:B 4.395 
12 *281:25 *2060:B 3.43 
13 *281:8 *281:92 12.29 
14 *281:92 *2062:A1 1.6 
15 *281:92 *281:101 5.555 
16 *281:101 *2087:B 4.665 
17 *281:101 *281:114 3.93 
18 *281:114 *2088:A1 3.6 
19 *281:114 *281:127 4.995 
20 *281:127 *281:129 2 
21 *281:129 *2085:A1 7.57 
22 *281:129 *2084:B 4.39 
23 *281:127 *281:153 10.31 
24 *281:153 *281:159 6.09 
25 *281:159 *281:175 21.875 
26 *281:175 *2077:A1 7.845 
27 *281:175 *281:186 2.91 
28 *281:186 *2072:A1 5.775 
29 *281:186 *281:197 3.93 
30 *281:197 *2068:B 7.155 
31 *281:197 *2073:B 9.495 
32 *281:159 *2067:A1 1.96 
33 *281:153 *2066:B 1.6 
*END

*D_NET *282 0.0340433
*CONN
*I *2197:RESET_B I *D sky130_fd_sc_hd__dfrtp_1
*I *2195:RESET_B I *D sky130_fd_sc_hd__dfrtp_1
*I *2198:RESET_B I *D sky130_fd_sc_hd__dfrtp_1
*I *2200:RESET_B I *D sky130_fd_sc_hd__dfrtp_1
*I *2055:B I *D sky130_fd_sc_hd__nand2_1
*I *2165:RESET_B I *D sky130_fd_sc_hd__dfrtp_1
*I *2164:RESET_B I *D sky130_fd_sc_hd__dfrtp_1
*I *2057:D1 I *D sky130_fd_sc_hd__o2111ai_1
*I *2111:A1 I *D sky130_fd_sc_hd__a21boi_0
*I *2053:A1 I *D sky130_fd_sc_hd__a21oi_1
*I *2196:RESET_B I *D sky130_fd_sc_hd__dfrtp_1
*I *2199:SET_B I *D sky130_fd_sc_hd__dfstp_2
*I *2166:RESET_B I *D sky130_fd_sc_hd__dfrtp_1
*I *2054:B I *D sky130_fd_sc_hd__and2_0
*I *2180:RESET_B I *D sky130_fd_sc_hd__dfrtp_1
*I *2194:RESET_B I *D sky130_fd_sc_hd__dfrtp_1
*I *2044:B1 I *D sky130_fd_sc_hd__o21ai_0
*I *2201:RESET_B I *D sky130_fd_sc_hd__dfrtp_1
*I *2193:RESET_B I *D sky130_fd_sc_hd__dfrtp_1
*I *2179:RESET_B I *D sky130_fd_sc_hd__dfrtp_1
*I *2178:RESET_B I *D sky130_fd_sc_hd__dfrtp_1
*I *2191:RESET_B I *D sky130_fd_sc_hd__dfrtp_1
*I *2192:RESET_B I *D sky130_fd_sc_hd__dfrtp_1
*I *2173:RESET_B I *D sky130_fd_sc_hd__dfrtp_1
*I *2187:RESET_B I *D sky130_fd_sc_hd__dfrtp_1
*I *2177:RESET_B I *D sky130_fd_sc_hd__dfrtp_1
*I *2172:RESET_B I *D sky130_fd_sc_hd__dfrtp_1
*I *2171:RESET_B I *D sky130_fd_sc_hd__dfrtp_1
*I *2186:RESET_B I *D sky130_fd_sc_hd__dfrtp_1
*I *2185:RESET_B I *D sky130_fd_sc_hd__dfrtp_1
*I *2184:RESET_B I *D sky130_fd_sc_hd__dfrtp_1
*I *2342:X O *D sky130_fd_sc_hd__buf_12
*CAP
1 *2197:RESET_B 0.000252275
2 *2195:RESET_B 0.000158944
3 *2198:RESET_B 0.000127402
4 *2200:RESET_B 0
5 *2055:B 3.37454e-05
6 *2165:RESET_B 0.000191387
7 *2164:RESET_B 7.02649e-05
8 *2057:D1 1.88809e-05
9 *2111:A1 0.000297047
10 *2053:A1 0
11 *2196:RESET_B 0.00123163
12 *2199:SET_B 0.000679554
13 *2166:RESET_B 4.9314e-05
14 *2054:B 9.30547e-05
15 *2180:RESET_B 0
16 *2194:RESET_B 0.000964019
17 *2044:B1 0
18 *2201:RESET_B 0.000203993
19 *2193:RESET_B 9.55122e-05
20 *2179:RESET_B 0.000500826
21 *2178:RESET_B 0.000840659
22 *2191:RESET_B 0
23 *2192:RESET_B 0.000199666
24 *2173:RESET_B 0.00107303
25 *2187:RESET_B 1.41331e-05
26 *2177:RESET_B 0.000607929
27 *2172:RESET_B 0.000993245
28 *2171:RESET_B 0.000715181
29 *2186:RESET_B 0.00050663
30 *2185:RESET_B 0.000405569
31 *2184:RESET_B 0.000688721
32 *2342:X 0.000283152
33 *282:409 0.000785281
34 *282:365 0.000606589
35 *282:355 0.000620595
36 *282:353 0.000327393
37 *282:351 0.000770121
38 *282:340 0.00102513
39 *282:308 0.000464185
40 *282:247 0.000538582
41 *282:245 0.000478149
42 *282:210 0.00092715
43 *282:204 0.000938688
44 *282:202 0.000522143
45 *282:176 0.000507122
46 *282:113 0.000893465
47 *282:111 0.000511049
48 *282:109 0.000233053
49 *282:107 0.000990731
50 *282:43 0.00075677
51 *2054:B *2054:A 0.000139596
52 *2054:B *2166:D 3.75882e-06
53 *2171:RESET_B *2072:B1 0
54 *2172:RESET_B *2171:D 0.000123225
55 *2173:RESET_B *2173:D 6.77417e-05
56 *2177:RESET_B *2172:D 0.000122164
57 *2178:RESET_B *2177:D 2.6348e-06
58 *2179:RESET_B *2303:A 9.14049e-05
59 *2185:RESET_B *2184:D 4.77807e-05
60 *2185:RESET_B *340:10 7.03276e-05
61 *2186:RESET_B *336:10 0.00015134
62 *2201:RESET_B *299:14 0.000141606
63 *282:107 *2096:B1 6.47516e-05
64 *282:176 *2303:A 0.000201393
65 *282:247 *2054:A 0.000865916
66 *282:247 *2166:D 0.000123865
67 *282:308 *2239:A 0
68 *2041:A *2197:RESET_B 1.73877e-05
69 *2041:A *282:409 0.000211895
70 *2049:A1 *2111:A1 0
71 *2049:A1 *2199:SET_B 8.53113e-06
72 *2049:A1 *282:308 0
73 *2050:A *282:247 0
74 *2052:B *2198:RESET_B 0
75 *2052:B *282:353 0
76 *2052:B *282:355 0
77 *2056:A *282:355 7.76064e-05
78 *2056:A *282:365 0.000203484
79 *2056:B *282:365 0.000137089
80 *2057:A1 *282:340 2.75145e-05
81 *2057:C1 *282:340 8.73389e-06
82 *2057:C1 *282:351 0.000123786
83 *2069:A_N *2197:RESET_B 0.000137578
84 *2071:A1 *2185:RESET_B 4.7072e-06
85 *2071:A2 *2186:RESET_B 0.000122315
86 *2072:A2 *2171:RESET_B 0
87 *2074:B *2197:RESET_B 0
88 *2082:A1 *282:176 7.53115e-05
89 *2096:A2 *2178:RESET_B 6.75901e-05
90 *2096:A2 *2192:RESET_B 4.89395e-05
91 *2096:A2 *282:107 1.71928e-05
92 *2096:A2 *282:109 5.68786e-05
93 *2096:A2 *282:111 7.5745e-05
94 *2104:A2 *2193:RESET_B 0.000272978
95 *2108:A2 *282:202 5.42446e-05
96 *2111:A2 *2111:A1 5.83121e-06
97 *2116:A *2186:RESET_B 2.98644e-05
98 *2117:B2 *2186:RESET_B 5.83121e-06
99 *2122:A1 *2173:RESET_B 0.0001249
100 *2131:B *2192:RESET_B 0.000160342
101 *2132:B2 *2192:RESET_B 8.52972e-05
102 *2133:A *2178:RESET_B 2.75229e-05
103 *2134:A2 *282:111 0.000125625
104 *2134:B1 *282:111 4.10627e-05
105 *2136:B1 *2196:RESET_B 0.000410128
106 *2136:B1 *282:409 6.95334e-05
107 *2137:B1 *2196:RESET_B 1.14192e-05
108 *2138:A3 *2196:RESET_B 0.000287951
109 *2139:B1 *2196:RESET_B 9.10613e-05
110 *2151:B1 *282:351 2.24829e-05
111 *2151:B2 *282:351 0.000155033
112 *2157:A *2165:RESET_B 0.000120186
113 *2166:CLK *2166:RESET_B 4.27173e-05
114 *2171:CLK *2172:RESET_B 4.29016e-05
115 *2172:CLK *2177:RESET_B 0.000161697
116 *2184:CLK *2185:RESET_B 8.38025e-06
117 *2186:CLK *2186:RESET_B 6.33528e-05
118 *2187:D *2173:RESET_B 0.000118764
119 *2194:CLK *2196:RESET_B 8.23535e-05
120 *2194:D *2196:RESET_B 0.000197858
121 *2197:D *2197:RESET_B 7.06865e-05
122 *2199:CLK *282:308 0
123 *2199:CLK *282:340 1.61831e-05
124 *2199:D *282:308 0
125 *2199:D *282:340 7.22354e-05
126 *2201:CLK *282:245 4.24575e-05
127 *2201:D *2201:RESET_B 0
128 *2228:A *282:365 0.000113222
129 *2230:A *282:210 6.74079e-05
130 *2232:A *2196:RESET_B 7.11365e-05
131 *2242:A *2195:RESET_B 0.000285891
132 *2244:A *282:409 4.77769e-05
133 *2245:A *2197:RESET_B 4.5783e-05
134 *2245:A *282:409 0.000230037
135 *2255:A *2201:RESET_B 0
136 *2268:A *2193:RESET_B 0.000119457
137 *2274:A *2164:RESET_B 5.83121e-06
138 *2274:A *282:365 2.10214e-05
139 *2285:A *2178:RESET_B 8.52972e-05
140 *2320:A *282:111 0.000110785
141 *2359:A *2054:B 2.75145e-05
142 *2362:A *2194:RESET_B 8.53011e-05
143 *2362:A *282:204 4.83032e-05
144 *2370:A *282:107 8.42924e-05
145 *2370:A *282:109 4.23802e-05
146 *2371:A *282:107 0
147 *4:34 *2198:RESET_B 0
148 *4:34 *282:353 0
149 *4:34 *282:355 0
150 *4:34 *282:365 0
151 *42:80 *2201:RESET_B 8.53113e-06
152 *42:97 *2179:RESET_B 1.26548e-05
153 *42:97 *282:202 0
154 *42:101 *2193:RESET_B 8.23457e-05
155 *42:178 *282:176 0
156 *81:43 *2057:D1 5.4155e-06
157 *81:43 *2111:A1 0
158 *81:43 *282:308 0
159 *81:43 *282:340 3.17064e-05
160 *81:49 *2111:A1 0
161 *88:12 *2197:RESET_B 9.71067e-05
162 *94:10 *2186:RESET_B 2.98644e-05
163 *113:8 *2192:RESET_B 2.86691e-05
164 *114:8 *2173:RESET_B 5.51158e-05
165 *114:8 *282:113 0
166 *123:8 *2111:A1 5.4155e-06
167 *124:76 *2187:RESET_B 5.39961e-05
168 *124:76 *282:113 0.000198197
169 *124:93 *282:111 2.98644e-05
170 *124:93 *282:113 0.000114669
171 *162:10 *2195:RESET_B 2.0794e-05
172 *162:10 *2197:RESET_B 5.08478e-05
173 *162:14 *2195:RESET_B 2.57991e-05
174 *165:14 *2111:A1 0
175 *165:27 *2111:A1 0
176 *175:11 *2198:RESET_B 0.000115847
177 *175:47 *2197:RESET_B 0
178 *179:12 *2173:RESET_B 0.000428923
179 *179:96 *2178:RESET_B 0.000134553
180 *181:14 *2171:RESET_B 0
181 *181:14 *2185:RESET_B 5.18362e-05
182 *203:23 *2165:RESET_B 0.000268237
183 *211:12 *2111:A1 0
184 *213:20 *2195:RESET_B 0.000161123
185 *213:58 *2195:RESET_B 7.63094e-05
186 *213:58 *2197:RESET_B 0.000127375
187 *213:92 *2197:RESET_B 0
188 *213:103 *2197:RESET_B 0
189 *215:10 *2172:RESET_B 4.20162e-05
190 *267:10 *2184:RESET_B 0.000193237
191 *276:12 *2186:RESET_B 0.000115589
192 *280:28 *2164:RESET_B 3.92519e-05
193 *280:28 *282:365 9.39796e-05
*RES
1 *2342:X *2184:RESET_B 10.4825 
2 *2184:RESET_B *2185:RESET_B 9.835 
3 *2185:RESET_B *282:43 2 
4 *282:43 *2186:RESET_B 11.2775 
5 *282:43 *2171:RESET_B 6.185 
6 *2171:RESET_B *2172:RESET_B 6.45 
7 *2172:RESET_B *2177:RESET_B 7.14 
8 *2177:RESET_B *282:107 4.4 
9 *282:107 *282:109 1.89 
10 *282:109 *282:111 4.185 
11 *282:111 *282:113 3.675 
12 *282:113 *2187:RESET_B 2.615 
13 *282:113 *2173:RESET_B 18.2625 
14 *282:111 *2192:RESET_B 5.8475 
15 *282:109 *2191:RESET_B 2 
16 *282:107 *2178:RESET_B 12.9725 
17 *2173:RESET_B *282:176 8.735 
18 *282:176 *2179:RESET_B 3.38 
19 *282:176 *2193:RESET_B 4.8125 
20 *2179:RESET_B *282:202 9.38 
21 *282:202 *282:204 1.635 
22 *282:204 *282:210 14.33 
23 *282:210 *2201:RESET_B 7.675 
24 *282:210 *2044:B1 1.6 
25 *282:204 *2194:RESET_B 3.7775 
26 *282:202 *2180:RESET_B 2 
27 *2201:RESET_B *282:245 2.3975 
28 *282:245 *282:247 11.07 
29 *282:247 *2054:B 5.685 
30 *282:247 *2166:RESET_B 2.7425 
31 *282:245 *2199:SET_B 3.38 
32 *2194:RESET_B *2196:RESET_B 19.51 
33 *2199:SET_B *282:308 4.655 
34 *282:308 *2053:A1 3.6 
35 *282:308 *2111:A1 8.085 
36 *2199:SET_B *282:340 5.7075 
37 *282:340 *2057:D1 1.96 
38 *282:340 *282:351 10.73 
39 *282:351 *282:353 1.38 
40 *282:353 *282:355 4.44 
41 *282:355 *282:365 9.35 
42 *282:365 *2164:RESET_B 1.0875 
43 *282:365 *2165:RESET_B 8.44 
44 *282:355 *2055:B 4.05 
45 *282:353 *2200:RESET_B 2 
46 *282:351 *2198:RESET_B 4.655 
47 *2196:RESET_B *282:409 8.6075 
48 *282:409 *2195:RESET_B 6.89 
49 *282:409 *2197:RESET_B 7.46 
*END

*D_NET *283 0.000361575
*CONN
*I *2073:A I *D sky130_fd_sc_hd__nor2_1
*I *2277:X O *D sky130_fd_sc_hd__dlygate4sd3_1
*CAP
1 *2073:A 0.000106054
2 *2277:X 0.000106054
3 *2073:B *2073:A 8.65905e-05
4 *2278:A *2073:A 0
5 *2346:A *2073:A 6.28765e-05
*RES
1 *2277:X *2073:A 9.375 
*END

*D_NET *284 0.000917322
*CONN
*I *2077:B1 I *D sky130_fd_sc_hd__a21oi_1
*I *2278:X O *D sky130_fd_sc_hd__dlygate4sd3_1
*CAP
1 *2077:B1 0.000331494
2 *2278:X 0.000331494
3 *2077:B1 *2172:D 0
4 *2077:A1 *2077:B1 8.64599e-05
5 *2077:A2 *2077:B1 2.69443e-06
6 *2279:A *2077:B1 0.000136393
7 *215:10 *2077:B1 2.87867e-05
8 *281:186 *2077:B1 0
9 *281:197 *2077:B1 0
*RES
1 *2278:X *2077:B1 13.71 
*END

*D_NET *285 0.000396774
*CONN
*I *2172:D I *D sky130_fd_sc_hd__dfrtp_1
*I *2279:X O *D sky130_fd_sc_hd__dlygate4sd3_1
*CAP
1 *2172:D 0.000137305
2 *2279:X 0.000137305
3 *2077:B1 *2172:D 0
4 *2177:RESET_B *2172:D 0.000122164
5 *2366:A *2172:D 0
*RES
1 *2279:X *2172:D 9.465 
*END

*D_NET *286 0.000585601
*CONN
*I *2068:A I *D sky130_fd_sc_hd__nor2_1
*I *2280:X O *D sky130_fd_sc_hd__dlygate4sd3_1
*CAP
1 *2068:A 0.000152907
2 *2280:X 0.000152907
3 *2281:A *2068:A 0.000279787
*RES
1 *2280:X *2068:A 6.41 
*END

*D_NET *287 0.000690166
*CONN
*I *2072:B1 I *D sky130_fd_sc_hd__a21oi_1
*I *2281:X O *D sky130_fd_sc_hd__dlygate4sd3_1
*CAP
1 *2072:B1 0.000302162
2 *2281:X 0.000302162
3 *2072:B1 *2171:D 0
4 *2171:CLK *2072:B1 0
5 *2171:RESET_B *2072:B1 0
6 *2282:A *2072:B1 8.5841e-05
7 *2365:A *2072:B1 0
8 *181:14 *2072:B1 0
9 *204:10 *2072:B1 0
*RES
1 *2281:X *2072:B1 12.195 
*END

*D_NET *288 0.000416106
*CONN
*I *2048:B1_N I *D sky130_fd_sc_hd__a21boi_0
*I *2336:X O *D sky130_fd_sc_hd__buf_2
*CAP
1 *2048:B1_N 0.000149331
2 *2336:X 0.000149331
3 *2336:A *2048:B1_N 1.83847e-05
4 *266:14 *2048:B1_N 9.90602e-05
*RES
1 *2336:X *2048:B1_N 9.465 
*END

*D_NET *289 0.000386279
*CONN
*I *2171:D I *D sky130_fd_sc_hd__dfrtp_1
*I *2282:X O *D sky130_fd_sc_hd__dlygate4sd3_1
*CAP
1 *2171:D 0.000111659
2 *2282:X 0.000111659
3 *2072:B1 *2171:D 0
4 *2171:CLK *2171:D 3.97377e-05
5 *2172:RESET_B *2171:D 0.000123225
*RES
1 *2282:X *2171:D 9.465 
*END

*D_NET *290 0.000379765
*CONN
*I *2093:A I *D sky130_fd_sc_hd__nor2_1
*I *2283:X O *D sky130_fd_sc_hd__dlygate4sd3_1
*CAP
1 *2093:A 0.000124033
2 *2283:X 0.000124033
3 *2284:A *2093:A 6.61674e-05
4 *2351:A *2093:A 6.55328e-05
5 *2370:A *2093:A 0
*RES
1 *2283:X *2093:A 9.72 
*END

*D_NET *291 0.00061792
*CONN
*I *2096:B1 I *D sky130_fd_sc_hd__a21oi_1
*I *2284:X O *D sky130_fd_sc_hd__dlygate4sd3_1
*CAP
1 *2096:B1 0.000201159
2 *2284:X 0.000201159
3 *2096:A1 *2096:B1 0.000150851
4 *2370:A *2096:B1 0
5 *282:107 *2096:B1 6.47516e-05
*RES
1 *2284:X *2096:B1 11.16 
*END

*D_NET *292 0.000507798
*CONN
*I *2177:D I *D sky130_fd_sc_hd__dfrtp_1
*I *2285:X O *D sky130_fd_sc_hd__dlygate4sd3_1
*CAP
1 *2177:D 0.000152841
2 *2285:X 0.000152841
3 *2096:A1 *2177:D 9.54399e-05
4 *2096:A2 *2177:D 3.45588e-05
5 *2178:RESET_B *2177:D 2.6348e-06
6 *2285:A *2177:D 1.7386e-05
7 *2371:A *2177:D 5.20968e-05
*RES
1 *2285:X *2177:D 9.81 
*END

*D_NET *293 0.000899549
*CONN
*I *2110:A0 I *D sky130_fd_sc_hd__mux2_1
*I *2286:X O *D sky130_fd_sc_hd__dlygate4sd3_1
*CAP
1 *2110:A0 0.000183795
2 *2286:X 0.000183795
3 *2110:S *2110:A0 0.000501921
4 *2260:A *2110:A0 3.00381e-05
*RES
1 *2286:X *2110:A0 7.79 
*END

*D_NET *294 0.000930928
*CONN
*I *2182:D I *D sky130_fd_sc_hd__dfrtp_1
*I *2287:X O *D sky130_fd_sc_hd__dlygate4sd3_1
*CAP
1 *2182:D 0.000347224
2 *2287:X 0.000347224
3 *2059:S *2182:D 6.55328e-05
4 *2168:RESET_B *2182:D 5.07601e-05
5 *81:14 *2182:D 0.000120186
*RES
1 *2287:X *2182:D 12.135 
*END

*D_NET *295 0.00038485
*CONN
*I *2099:A I *D sky130_fd_sc_hd__nor2_1
*I *2288:X O *D sky130_fd_sc_hd__dlygate4sd3_1
*CAP
1 *2099:A 0.000110226
2 *2288:X 0.000110226
3 *2352:A *2099:A 0.000164398
4 *42:204 *2099:A 0
*RES
1 *2288:X *2099:A 9.285 
*END

*D_NET *296 9.2573e-05
*CONN
*I *2100:B1 I *D sky130_fd_sc_hd__a21oi_1
*I *2289:X O *D sky130_fd_sc_hd__dlygate4sd3_1
*CAP
1 *2100:B1 2.18167e-05
2 *2289:X 2.18167e-05
3 *2100:A2 *2100:B1 4.89395e-05
*RES
1 *2289:X *2100:B1 3.65 
*END

*D_NET *297 0.000588515
*CONN
*I *2178:D I *D sky130_fd_sc_hd__dfrtp_1
*I *2290:X O *D sky130_fd_sc_hd__dlygate4sd3_1
*CAP
1 *2178:D 0.000221669
2 *2290:X 0.000221669
3 *2289:A *2178:D 9.30717e-05
4 *2290:A *2178:D 5.21046e-05
*RES
1 *2290:X *2178:D 10.155 
*END

*D_NET *298 0.000434575
*CONN
*I *2066:A I *D sky130_fd_sc_hd__nor2_1
*I *2291:X O *D sky130_fd_sc_hd__dlygate4sd3_1
*CAP
1 *2066:A 0.000193201
2 *2291:X 0.000193201
3 *2174:RESET_B *2066:A 4.23417e-05
4 *2293:A *2066:A 5.83121e-06
*RES
1 *2291:X *2066:A 10.41 
*END

*D_NET *299 0.00581741
*CONN
*I *2372:A I *D sky130_fd_sc_hd__buf_2
*I *2045:A I *D sky130_fd_sc_hd__inv_1
*I *2044:Y O *D sky130_fd_sc_hd__o21ai_0
*CAP
1 *2372:A 0.000154438
2 *2045:A 1.76755e-06
3 *2044:Y 0.00128357
4 *299:14 0.00143977
5 ready *2372:A 8.77498e-05
6 *2049:A1 *299:14 0.00259052
7 *2201:RESET_B *299:14 0.000141606
8 *2255:A *299:14 4.91189e-05
9 *2358:A *2045:A 5.95154e-06
10 *2358:A *2372:A 4.15656e-05
11 *2358:A *299:14 2.13569e-05
*RES
1 *2044:Y *299:14 37.8088 
2 *299:14 *2045:A 1.79875 
3 *299:14 *2372:A 4.83625 
*END

*D_NET *300 0.000422631
*CONN
*I *2067:B1 I *D sky130_fd_sc_hd__a21oi_1
*I *2292:X O *D sky130_fd_sc_hd__dlygate4sd3_1
*CAP
1 *2067:B1 9.28101e-05
2 *2292:X 9.28101e-05
3 *281:159 *2067:B1 0.00023701
*RES
1 *2292:X *2067:B1 5.375 
*END

*D_NET *301 0.000476933
*CONN
*I *2170:D I *D sky130_fd_sc_hd__dfrtp_1
*I *2293:X O *D sky130_fd_sc_hd__dlygate4sd3_1
*CAP
1 *2170:D 0.000238467
2 *2293:X 0.000238467
*RES
1 *2293:X *2170:D 10.755 
*END

*D_NET *302 9.8573e-05
*CONN
*I *2107:A I *D sky130_fd_sc_hd__nor2_1
*I *2294:X O *D sky130_fd_sc_hd__dlygate4sd3_1
*CAP
1 *2107:A 1.19353e-05
2 *2294:X 1.19353e-05
3 *2107:B *2107:A 4.77807e-05
4 *2295:A *2107:A 2.69217e-05
*RES
1 *2294:X *2107:A 3.65 
*END

*D_NET *303 0.000111545
*CONN
*I *2108:B1 I *D sky130_fd_sc_hd__a21oi_1
*I *2295:X O *D sky130_fd_sc_hd__dlygate4sd3_1
*CAP
1 *2108:B1 5.81042e-06
2 *2295:X 5.81042e-06
3 *2296:A *2108:B1 4.99619e-05
4 *42:80 *2108:B1 4.99619e-05
*RES
1 *2295:X *2108:B1 3.65 
*END

*D_NET *304 0.000470213
*CONN
*I *2180:D I *D sky130_fd_sc_hd__dfrtp_1
*I *2296:X O *D sky130_fd_sc_hd__dlygate4sd3_1
*CAP
1 *2180:D 0.000189347
2 *2296:X 0.000189347
3 *2139:A2 *2180:D 2.41307e-05
4 *2180:CLK *2180:D 6.73878e-05
*RES
1 *2296:X *2180:D 9.8325 
*END

*D_NET *305 0.000204675
*CONN
*I *2091:A I *D sky130_fd_sc_hd__nor2_1
*I *2297:X O *D sky130_fd_sc_hd__dlygate4sd3_1
*CAP
1 *2091:A 8.4784e-05
2 *2297:X 8.4784e-05
3 *2298:A *2091:A 3.51072e-05
*RES
1 *2297:X *2091:A 4.685 
*END

*D_NET *306 0.000526496
*CONN
*I *2092:B1 I *D sky130_fd_sc_hd__a21oi_1
*I *2298:X O *D sky130_fd_sc_hd__dlygate4sd3_1
*CAP
1 *2092:B1 0.000207984
2 *2298:X 0.000207984
3 *2092:A2 *2092:B1 3.18219e-05
4 *273:6 *2092:B1 7.87074e-05
5 *281:29 *2092:B1 0
*RES
1 *2298:X *2092:B1 10.155 
*END

*D_NET *307 0.000520264
*CONN
*I *2176:D I *D sky130_fd_sc_hd__dfrtp_1
*I *2299:X O *D sky130_fd_sc_hd__dlygate4sd3_1
*CAP
1 *2176:D 0.000159453
2 *2299:X 0.000159453
3 *2190:RESET_B *2176:D 8.28383e-05
4 *281:29 *2176:D 0.00011852
*RES
1 *2299:X *2176:D 10.41 
*END

*D_NET *308 5.97061e-05
*CONN
*I *2084:A I *D sky130_fd_sc_hd__nor2_1
*I *2300:X O *D sky130_fd_sc_hd__dlygate4sd3_1
*CAP
1 *2084:A 2.9853e-05
2 *2300:X 2.9853e-05
*RES
1 *2300:X *2084:A 3.65 
*END

*D_NET *309 0.000767711
*CONN
*I *2085:B1 I *D sky130_fd_sc_hd__a21oi_1
*I *2301:X O *D sky130_fd_sc_hd__dlygate4sd3_1
*CAP
1 *2085:B1 8.08435e-05
2 *2301:X 8.08435e-05
3 *2085:A1 *2085:B1 0.000423077
4 *2302:A *2085:B1 0.00015425
5 *196:6 *2085:B1 2.86975e-05
*RES
1 *2301:X *2085:B1 7.1 
*END

*D_NET *310 0.00311014
*CONN
*I *2373:A I *D sky130_fd_sc_hd__buf_2
*I *2056:Y O *D sky130_fd_sc_hd__nor2_1
*CAP
1 *2373:A 0.00153559
2 *2056:Y 0.00153559
3 *2373:A *2168:D 3.89528e-05
4 *2233:A *2373:A 0
*RES
1 *2056:Y *2373:A 33.315 
*END

*D_NET *311 0.000787316
*CONN
*I *2174:D I *D sky130_fd_sc_hd__dfrtp_1
*I *2302:X O *D sky130_fd_sc_hd__dlygate4sd3_1
*CAP
1 *2174:D 0.000243604
2 *2302:X 0.000243604
3 *2174:RESET_B *2174:D 0
4 *281:153 *2174:D 0.000300109
*RES
1 *2302:X *2174:D 11.76 
*END

*D_NET *312 0.000629781
*CONN
*I *2103:A I *D sky130_fd_sc_hd__nor2_1
*I *2303:X O *D sky130_fd_sc_hd__dlygate4sd3_1
*CAP
1 *2103:A 0.00031489
2 *2303:X 0.00031489
*RES
1 *2303:X *2103:A 11.01 
*END

*D_NET *313 0.000111545
*CONN
*I *2104:B1 I *D sky130_fd_sc_hd__a21oi_1
*I *2304:X O *D sky130_fd_sc_hd__dlygate4sd3_1
*CAP
1 *2104:B1 5.81042e-06
2 *2304:X 5.81042e-06
3 *2104:A2 *2104:B1 4.99619e-05
4 *42:101 *2104:B1 4.99619e-05
*RES
1 *2304:X *2104:B1 3.65 
*END

*D_NET *314 0.000693464
*CONN
*I *2179:D I *D sky130_fd_sc_hd__dfrtp_1
*I *2305:X O *D sky130_fd_sc_hd__dlygate4sd3_1
*CAP
1 *2179:D 0.000232631
2 *2305:X 0.000232631
3 *2104:A2 *2179:D 0.000228202
4 *2215:A *2179:D 0
5 *42:97 *2179:D 0
6 *179:22 *2179:D 0
*RES
1 *2305:X *2179:D 11.16 
*END

*D_NET *315 0.000887105
*CONN
*I *2087:A I *D sky130_fd_sc_hd__nor2_1
*I *2306:X O *D sky130_fd_sc_hd__dlygate4sd3_1
*CAP
1 *2087:A 0.000378855
2 *2306:X 0.000378855
3 *2087:A *2175:D 6.69341e-05
4 *2087:B *2087:A 1.57817e-05
5 *2307:A *2087:A 0
6 *248:6 *2087:A 2.11084e-05
7 *281:114 *2087:A 2.5571e-05
*RES
1 *2306:X *2087:A 12.135 
*END

*D_NET *316 0.000289963
*CONN
*I *2088:B1 I *D sky130_fd_sc_hd__a21oi_1
*I *2307:X O *D sky130_fd_sc_hd__dlygate4sd3_1
*CAP
1 *2088:B1 9.97077e-05
2 *2307:X 9.97077e-05
3 *2273:A *2088:B1 7.23602e-05
4 *2307:A *2088:B1 0
5 *281:114 *2088:B1 5.53249e-06
6 *281:127 *2088:B1 1.26548e-05
*RES
1 *2307:X *2088:B1 8.775 
*END

*D_NET *317 0.000758025
*CONN
*I *2175:D I *D sky130_fd_sc_hd__dfrtp_1
*I *2308:X O *D sky130_fd_sc_hd__dlygate4sd3_1
*CAP
1 *2175:D 0.000300435
2 *2308:X 0.000300435
3 *2087:A *2175:D 6.69341e-05
4 *2175:RESET_B *2175:D 4.31782e-05
5 *2307:A *2175:D 4.7043e-05
6 *281:114 *2175:D 0
*RES
1 *2308:X *2175:D 12.48 
*END

*D_NET *318 0.00073156
*CONN
*I *2060:A I *D sky130_fd_sc_hd__nor2_1
*I *2309:X O *D sky130_fd_sc_hd__dlygate4sd3_1
*CAP
1 *2060:A 0.000236971
2 *2309:X 0.000236971
3 *2310:A *2060:A 0.000257618
4 *277:120 *2060:A 0
*RES
1 *2309:X *2060:A 12.135 
*END

*D_NET *319 0.00152331
*CONN
*I *2062:B1 I *D sky130_fd_sc_hd__a21oi_1
*I *2310:X O *D sky130_fd_sc_hd__dlygate4sd3_1
*CAP
1 *2062:B1 0.000399145
2 *2310:X 0.000399145
3 *2087:B *2062:B1 4.77807e-05
4 *2270:A *2062:B1 6.30072e-05
5 *2307:A *2062:B1 0.00019608
6 *2311:A *2062:B1 0.000109554
7 *281:101 *2062:B1 0.000308597
*RES
1 *2310:X *2062:B1 16.41 
*END

*D_NET *320 0.000655077
*CONN
*I *2169:D I *D sky130_fd_sc_hd__dfrtp_1
*I *2311:X O *D sky130_fd_sc_hd__dlygate4sd3_1
*CAP
1 *2169:D 0.000327539
2 *2311:X 0.000327539
3 *2169:RESET_B *2169:D 0
*RES
1 *2311:X *2169:D 12.66 
*END

*D_NET *321 0.0031226
*CONN
*I *2374:A I *D sky130_fd_sc_hd__buf_2
*I *2309:A I *D sky130_fd_sc_hd__dlygate4sd3_1
*I *2169:Q O *D sky130_fd_sc_hd__dfrtp_1
*CAP
1 *2374:A 0.00138505
2 *2309:A 0.0015613
3 *2169:Q 0.000176244
*RES
1 *2169:Q *2309:A 5.72 
2 *2309:A *2374:A 24.005 
*END

*D_NET *322 0.000450307
*CONN
*I *2109:A0 I *D sky130_fd_sc_hd__mux2_1
*I *2312:X O *D sky130_fd_sc_hd__dlygate4sd3_1
*CAP
1 *2109:A0 0.000137841
2 *2312:X 0.000137841
3 *2110:S *2109:A0 8.64421e-05
4 *281:37 *2109:A0 8.81829e-05
*RES
1 *2312:X *2109:A0 5.72 
*END

*D_NET *323 0.000210541
*CONN
*I *2181:D I *D sky130_fd_sc_hd__dfrtp_1
*I *2313:X O *D sky130_fd_sc_hd__dlygate4sd3_1
*CAP
1 *2181:D 5.99907e-05
2 *2313:X 5.99907e-05
3 *2262:A *2181:D 9.05592e-05
*RES
1 *2313:X *2181:D 8.325 
*END

*D_NET *324 0.000323454
*CONN
*I *2081:A I *D sky130_fd_sc_hd__nor2_1
*I *2314:X O *D sky130_fd_sc_hd__dlygate4sd3_1
*CAP
1 *2081:A 0.000103607
2 *2314:X 0.000103607
3 *2315:A *2081:A 7.4027e-05
4 *42:178 *2081:A 3.38818e-05
5 *42:191 *2081:A 8.33066e-06
*RES
1 *2314:X *2081:A 9.285 
*END

*D_NET *325 0.00103628
*CONN
*I *2082:B1 I *D sky130_fd_sc_hd__a21oi_1
*I *2315:X O *D sky130_fd_sc_hd__dlygate4sd3_1
*CAP
1 *2082:B1 0.00035673
2 *2315:X 0.00035673
3 *2135:A *2082:B1 0
4 *42:178 *2082:B1 0.000319174
5 *179:16 *2082:B1 0
6 *179:70 *2082:B1 3.64998e-06
*RES
1 *2315:X *2082:B1 13.05 
*END

*D_NET *326 0.000523362
*CONN
*I *2173:D I *D sky130_fd_sc_hd__dfrtp_1
*I *2316:X O *D sky130_fd_sc_hd__dlygate4sd3_1
*CAP
1 *2173:D 0.000152584
2 *2316:X 0.000152584
3 *2133:B *2173:D 0
4 *2173:RESET_B *2173:D 6.77417e-05
5 *179:12 *2173:D 8.49205e-05
6 *179:16 *2173:D 6.55328e-05
*RES
1 *2316:X *2173:D 10.41 
*END

*D_NET *327 0.00171383
*CONN
*I *2046:B I *D sky130_fd_sc_hd__nor3b_1
*I *2163:A1 I *D sky130_fd_sc_hd__o22a_1
*I *2162:A1 I *D sky130_fd_sc_hd__a21boi_0
*I *2317:X O *D sky130_fd_sc_hd__dlygate4sd3_1
*CAP
1 *2046:B 0.000131762
2 *2163:A1 1.90984e-05
3 *2162:A1 8.28045e-05
4 *2317:X 0
5 *327:21 0.000279874
6 *327:4 0.000211818
7 *2156:A *2046:B 0.00012657
8 *2156:B *2046:B 0.000211491
9 *2158:C *2046:B 4.98712e-05
10 *2161:B1 *327:21 0.000220592
11 *2162:A2 *2162:A1 4.89395e-05
12 *2163:A2 *2046:B 2.05056e-05
13 *2163:A2 *327:21 2.75229e-05
14 *2163:B1 *327:21 0.00011724
15 *2163:B2 *2046:B 8.75256e-05
16 *2163:B2 *2163:A1 4.00541e-06
17 *2163:B2 *327:21 2.75229e-05
18 *148:50 *2163:A1 0
19 *151:10 *2046:B 4.66826e-05
*RES
1 *2317:X *327:4 1.6 
2 *327:4 *2162:A1 2.755 
3 *327:4 *327:21 7.87 
4 *327:21 *2163:A1 1.96 
5 *327:21 *2046:B 5.5 
*END

*D_NET *328 0.000493133
*CONN
*I *2166:D I *D sky130_fd_sc_hd__dfrtp_1
*I *2318:X O *D sky130_fd_sc_hd__dlygate4sd3_1
*CAP
1 *2166:D 0.000182754
2 *2318:X 0.000182754
3 *2054:B *2166:D 3.75882e-06
4 *282:247 *2166:D 0.000123865
*RES
1 *2318:X *2166:D 11.13 
*END

*D_NET *329 0.000584591
*CONN
*I *2095:B1 I *D sky130_fd_sc_hd__o21ai_0
*I *2132:A1 I *D sky130_fd_sc_hd__a22o_1
*I *2319:X O *D sky130_fd_sc_hd__dlygate4sd3_1
*CAP
1 *2095:B1 0
2 *2132:A1 7.27321e-05
3 *2319:X 7.51262e-05
4 *329:10 0.000147858
5 *2098:A1 *329:10 3.97568e-05
6 *2132:B2 *2132:A1 5.24182e-05
7 *113:8 *2132:A1 0.000196699
*RES
1 *2319:X *329:10 6.98 
2 *329:10 *2132:A1 3.79 
3 *329:10 *2095:B1 1.6 
*END

*D_NET *330 0.000377132
*CONN
*I *2191:D I *D sky130_fd_sc_hd__dfrtp_1
*I *2320:X O *D sky130_fd_sc_hd__dlygate4sd3_1
*CAP
1 *2191:D 9.49453e-05
2 *2320:X 9.49453e-05
3 *2096:A2 *2191:D 5.01076e-05
4 *2134:B1 *2191:D 8.52972e-05
5 *2371:A *2191:D 5.18362e-05
*RES
1 *2320:X *2191:D 9.12 
*END

*D_NET *331 0.00157954
*CONN
*I *2134:A1 I *D sky130_fd_sc_hd__a22o_1
*I *2098:B1 I *D sky130_fd_sc_hd__o21ai_0
*I *2321:X O *D sky130_fd_sc_hd__dlygate4sd3_1
*CAP
1 *2134:A1 8.28562e-05
2 *2098:B1 2.50857e-05
3 *2321:X 8.28213e-05
4 *331:10 0.000190763
5 *2100:A2 *331:10 5.83121e-06
6 *2133:B *2098:B1 2.4002e-05
7 *2133:B *331:10 9.23517e-06
8 *2134:A2 *2134:A1 0.000272899
9 *2134:B1 *2134:A1 0.000193244
10 *2134:B2 *2134:A1 0.000494457
11 *2134:B2 *331:10 6.90254e-05
12 *115:10 *2098:B1 4.864e-05
13 *115:10 *331:10 8.06756e-05
*RES
1 *2321:X *331:10 5.175 
2 *331:10 *2098:B1 4.215 
3 *331:10 *2134:A1 8.19 
*END

*D_NET *332 0.00522971
*CONN
*I *2303:A I *D sky130_fd_sc_hd__dlygate4sd3_1
*I *2375:A I *D sky130_fd_sc_hd__buf_2
*I *2179:Q O *D sky130_fd_sc_hd__dfrtp_1
*CAP
1 *2303:A 0.000391313
2 *2375:A 0.00193501
3 *2179:Q 0.00232632
4 data[10] *2375:A 0
5 trial_code[10] *2375:A 0
6 *2082:A1 *2303:A 0.000213581
7 *2179:RESET_B *2303:A 9.14049e-05
8 *42:97 *2303:A 7.06865e-05
9 *282:176 *2303:A 0.000201393
*RES
1 *2179:Q *2375:A 36.36 
2 *2179:Q *2303:A 13.83 
*END

*D_NET *333 0.000228565
*CONN
*I *2192:D I *D sky130_fd_sc_hd__dfrtp_1
*I *2322:X O *D sky130_fd_sc_hd__dlygate4sd3_1
*CAP
1 *2192:D 0.000114282
2 *2322:X 0.000114282
*RES
1 *2322:X *2192:D 9.09 
*END

*D_NET *334 0.00151235
*CONN
*I *2119:A1 I *D sky130_fd_sc_hd__a22o_1
*I *2071:B1 I *D sky130_fd_sc_hd__o21ai_0
*I *2323:X O *D sky130_fd_sc_hd__dlygate4sd3_1
*CAP
1 *2119:A1 0.00019591
2 *2071:B1 2.8812e-05
3 *2323:X 0.000180102
4 *334:10 0.000404824
5 *2119:A1 *2185:D 0.00012398
6 *2071:A2 *2119:A1 0.000232442
7 *2324:A *2119:A1 4.51928e-05
8 *95:6 *2119:A1 3.25525e-05
9 *181:14 *2071:B1 4.09654e-05
10 *181:14 *334:10 0.00021844
11 *181:18 *2071:B1 9.12494e-06
*RES
1 *2323:X *334:10 7.215 
2 *334:10 *2071:B1 4.215 
3 *334:10 *2119:A1 7.845 
*END

*D_NET *335 0.000433977
*CONN
*I *2185:D I *D sky130_fd_sc_hd__dfrtp_1
*I *2324:X O *D sky130_fd_sc_hd__dlygate4sd3_1
*CAP
1 *2185:D 0.000138369
2 *2324:X 0.000138369
3 *2072:A2 *2185:D 3.32593e-05
4 *2119:A1 *2185:D 0.00012398
*RES
1 *2324:X *2185:D 9.465 
*END

*D_NET *336 0.00221141
*CONN
*I *2121:A1 I *D sky130_fd_sc_hd__a22o_1
*I *2076:B1 I *D sky130_fd_sc_hd__o21ai_0
*I *2325:X O *D sky130_fd_sc_hd__dlygate4sd3_1
*CAP
1 *2121:A1 0.000206981
2 *2076:B1 0.000183777
3 *2325:X 0.000209765
4 *336:10 0.000600523
5 *2121:A1 *2186:D 0.000121036
6 *2076:A2 *2076:B1 0.00012657
7 *2094:B *2076:B1 9.37731e-05
8 *2094:B *2121:A1 1.85451e-05
9 *2118:B *2076:B1 4.75948e-05
10 *2118:B *336:10 4.83032e-05
11 *2121:B1 *2121:A1 4.80285e-05
12 *2186:CLK *336:10 2.9295e-05
13 *2186:RESET_B *336:10 0.00015134
14 *2326:A *2121:A1 0.000118207
15 *99:6 *2076:B1 4.99619e-05
16 *181:80 *2076:B1 4.60584e-05
17 *281:175 *2076:B1 5.02539e-05
18 *281:175 *2121:A1 1.56428e-05
19 *281:175 *336:10 4.5758e-05
*RES
1 *2325:X *336:10 6.9 
2 *336:10 *2076:B1 7.935 
3 *336:10 *2121:A1 7.845 
*END

*D_NET *337 0.000531434
*CONN
*I *2186:D I *D sky130_fd_sc_hd__dfrtp_1
*I *2326:X O *D sky130_fd_sc_hd__dlygate4sd3_1
*CAP
1 *2186:D 0.000112063
2 *2326:X 0.000112063
3 *2077:A2 *2186:D 9.37846e-05
4 *2121:A1 *2186:D 0.000121036
5 *276:25 *2186:D 9.24881e-05
*RES
1 *2326:X *2186:D 9.465 
*END

*D_NET *338 0.000779735
*CONN
*I *2110:A1 I *D sky130_fd_sc_hd__mux2_1
*I *2059:A1 I *D sky130_fd_sc_hd__mux2_1
*I *2327:X O *D sky130_fd_sc_hd__dlygate4sd3_1
*CAP
1 *2110:A1 8.63864e-05
2 *2059:A1 5.66458e-05
3 *2327:X 0.000149269
4 *338:10 0.000292301
5 *2058:A0 *2110:A1 0
6 *2058:A0 *338:10 0
7 *2059:A0 *338:10 2.87867e-05
8 *2059:S *2110:A1 0.000166346
9 *81:14 *2110:A1 0
10 *81:14 *338:10 0
*RES
1 *2327:X *338:10 5.775 
2 *338:10 *2059:A1 4.395 
3 *338:10 *2110:A1 5.745 
*END

*D_NET *339 0.00045145
*CONN
*I *2168:D I *D sky130_fd_sc_hd__dfrtp_1
*I *2328:X O *D sky130_fd_sc_hd__dlygate4sd3_1
*CAP
1 *2168:D 0.000168201
2 *2328:X 0.000168201
3 *2168:CLK *2168:D 7.60965e-05
4 *2373:A *2168:D 3.89528e-05
*RES
1 *2328:X *2168:D 10.155 
*END

*D_NET *340 0.00205271
*CONN
*I *2117:A1 I *D sky130_fd_sc_hd__a22o_1
*I *2065:B1 I *D sky130_fd_sc_hd__o21ai_0
*I *2329:X O *D sky130_fd_sc_hd__dlygate4sd3_1
*CAP
1 *2117:A1 0
2 *2065:B1 0.000115435
3 *2329:X 0.000563787
4 *340:10 0.000679222
5 *2065:A1 *2065:B1 1.16578e-05
6 *2067:A2 *2065:B1 2.94492e-05
7 *2116:A *2065:B1 5.88321e-05
8 *2185:RESET_B *340:10 7.03276e-05
9 *2264:A *340:10 0.000159372
10 *181:14 *340:10 2.29568e-05
11 *181:18 *2065:B1 8.34904e-06
12 *181:18 *340:10 5.81601e-05
13 *278:32 *2065:B1 0.000112589
14 *279:109 *2065:B1 7.51327e-05
15 *279:109 *340:10 5.31158e-06
16 *281:175 *2065:B1 8.2126e-05
*RES
1 *2329:X *340:10 11.865 
2 *340:10 *2065:B1 7.2 
3 *340:10 *2117:A1 3.6 
*END

*D_NET *341 0.000494807
*CONN
*I *2184:D I *D sky130_fd_sc_hd__dfrtp_1
*I *2330:X O *D sky130_fd_sc_hd__dlygate4sd3_1
*CAP
1 *2184:D 0.000173259
2 *2330:X 0.000173259
3 *2170:CLK *2184:D 5.83121e-06
4 *2184:CLK *2184:D 8.04175e-05
5 *2185:RESET_B *2184:D 4.77807e-05
6 *2330:A *2184:D 1.42598e-05
*RES
1 *2330:X *2184:D 9.99 
*END

*D_NET *342 0.00108518
*CONN
*I *2115:A1 I *D sky130_fd_sc_hd__a22o_1
*I *2061:B1 I *D sky130_fd_sc_hd__o21ai_0
*I *2331:X O *D sky130_fd_sc_hd__dlygate4sd3_1
*CAP
1 *2115:A1 6.38419e-05
2 *2061:B1 5.80898e-05
3 *2331:X 0.000298179
4 *342:6 0.00042011
5 *2114:A *2061:B1 5.83121e-06
6 *2183:D *342:6 9.41754e-05
7 *279:90 *2115:A1 8.43622e-05
8 *281:92 *2115:A1 6.05913e-05
*RES
1 *2331:X *342:6 6.535 
2 *342:6 *2061:B1 2.395 
3 *342:6 *2115:A1 7.49 
*END

*D_NET *343 0.000601337
*CONN
*I *2239:A I *D sky130_fd_sc_hd__dlygate4sd3_1
*I *2199:Q O *D sky130_fd_sc_hd__dfstp_2
*CAP
1 *2239:A 0.000248316
2 *2199:Q 0.000248316
3 *2049:A1 *2239:A 0.000104705
4 *282:308 *2239:A 0
*RES
1 *2199:Q *2239:A 10.41 
*END

*D_NET *344 0.00218552
*CONN
*I *2247:A I *D sky130_fd_sc_hd__dlygate4sd3_1
*I *2055:A I *D sky130_fd_sc_hd__nand2_1
*I *2200:Q O *D sky130_fd_sc_hd__dfrtp_1
*CAP
1 *2247:A 0.000442391
2 *2055:A 0.000414621
3 *2200:Q 0
4 *344:6 0.000857012
5 *2042:A *2247:A 6.18754e-05
6 *2129:B1 *2247:A 0.000172453
7 *4:34 *2055:A 0
8 *4:34 *2247:A 0
9 *125:14 *2247:A 0.000217872
10 *279:41 *2247:A 1.92979e-05
11 *280:16 *2055:A 0
12 *280:16 *2247:A 0
*RES
1 *2200:Q *344:6 3.6 
2 *344:6 *2055:A 9.885 
3 *344:6 *2247:A 12.375 
*END

*D_NET *345 0.00263583
*CONN
*I *2236:A I *D sky130_fd_sc_hd__dlygate4sd3_1
*I *2054:A I *D sky130_fd_sc_hd__and2_0
*I *2201:Q O *D sky130_fd_sc_hd__dfrtp_1
*CAP
1 *2236:A 8.66289e-05
2 *2054:A 0.000499272
3 *2201:Q 0.000585901
4 *2050:A *2236:A 0.0001249
5 *2050:B *2236:A 3.00381e-05
6 *2054:B *2054:A 0.000139596
7 *2161:B1 *2054:A 0
8 *2201:CLK *2054:A 3.82323e-06
9 *2201:CLK *2236:A 7.45329e-05
10 *2237:A *2236:A 8.8266e-05
11 *2318:A *2054:A 4.73521e-05
12 *207:8 *2236:A 8.96017e-05
13 *207:10 *2054:A 0
14 *282:247 *2054:A 0.000865916
*RES
1 *2201:Q *2054:A 19.485 
2 *2201:Q *2236:A 6.41 
*END
